*SPEF "ieee 1481-1999"
*DESIGN "mini_light_up_game"
*DATE "09:55:36 Tuesday April 28, 2026"
*VENDOR "The OpenROAD Project"
*PROGRAM "OpenROAD"
*VERSION "edf00dff99f6c40d67a30c0e22a8191c5d2ed9d6"
*DESIGN_FLOW "NAME_SCOPE LOCAL" "PIN_CAP NONE"
*DIVIDER /
*DELIMITER :
*BUS_DELIMITER []
*T_UNIT 1 NS
*C_UNIT 1 PF
*R_UNIT 1 OHM
*L_UNIT 1 HENRY

*NAME_MAP
*3 btn
*4 clk
*5 reset
*6 seg0[0]
*7 seg0[1]
*8 seg0[2]
*9 seg0[3]
*10 seg0[4]
*11 seg0[5]
*12 net38
*13 seg1[0]
*14 seg1[1]
*15 seg1[2]
*16 seg1[3]
*17 seg1[4]
*18 seg1[5]
*19 net39
*20 seg2[0]
*21 seg2[1]
*22 seg2[2]
*23 seg2[3]
*24 seg2[4]
*25 seg2[5]
*26 net40
*27 seg3[0]
*28 seg3[1]
*29 seg3[2]
*30 seg3[3]
*31 seg3[4]
*32 seg3[5]
*33 net41
*34 _000_
*35 _001_
*36 _002_
*37 _003_
*38 _004_
*39 _005_
*40 _006_
*41 _007_
*42 _008_
*43 _009_
*44 _010_
*45 _011_
*46 _012_
*47 _013_
*48 _014_
*49 _015_
*50 _016_
*51 _017_
*52 _018_
*53 _019_
*54 _020_
*55 _021_
*56 _022_
*57 _023_
*58 _024_
*59 _025_
*60 _026_
*61 _027_
*62 _028_
*63 _029_
*64 _030_
*65 _031_
*66 _032_
*67 _033_
*68 _034_
*69 _035_
*70 _036_
*71 _037_
*72 _038_
*73 _039_
*74 _040_
*75 _041_
*76 _042_
*77 _043_
*78 _044_
*79 _045_
*80 _046_
*81 _047_
*82 _048_
*83 btn_prev
*84 clknet_0_clk
*85 clknet_2_0__leaf_clk
*86 clknet_2_1__leaf_clk
*87 clknet_2_2__leaf_clk
*88 clknet_2_3__leaf_clk
*89 cnt\[0\]
*90 cnt\[1\]
*91 cursor\[0\]
*92 cursor\[1\]
*93 cursor\[2\]
*94 cursor\[3\]
*95 cursor\[4\]
*96 cursor\[5\]
*97 done_comb\[0\]
*98 done_comb\[1\]
*99 done_comb\[2\]
*100 done_ff\[0\]
*101 done_ff\[1\]
*102 done_ff\[2\]
*103 mem0\[0\]
*104 mem0\[1\]
*105 mem0\[2\]
*106 mem0\[3\]
*107 mem0\[4\]
*108 mem0\[5\]
*109 mem1\[0\]
*110 mem1\[1\]
*111 mem1\[2\]
*112 mem1\[3\]
*113 mem1\[4\]
*114 mem1\[5\]
*115 mem2\[0\]
*116 mem2\[1\]
*117 mem2\[2\]
*118 mem2\[3\]
*119 mem2\[4\]
*120 mem2\[5\]
*121 mem3\[0\]
*122 mem3\[1\]
*123 mem3\[2\]
*124 mem3\[3\]
*125 mem3\[4\]
*126 mem3\[5\]
*127 net1
*128 net10
*129 net11
*130 net12
*131 net13
*132 net14
*133 net15
*134 net16
*135 net17
*136 net18
*137 net19
*138 net2
*139 net20
*140 net21
*141 net22
*142 net23
*143 net24
*144 net25
*145 net26
*146 net27
*147 net28
*148 net29
*149 net3
*150 net30
*151 net31
*152 net32
*153 net33
*154 net34
*155 net35
*156 net36
*157 net37
*158 net4
*159 net42
*160 net43
*161 net44
*162 net45
*163 net46
*164 net47
*165 net48
*166 net49
*167 net5
*168 net50
*169 net51
*170 net52
*171 net53
*172 net54
*173 net55
*174 net56
*175 net57
*176 net58
*177 net59
*178 net6
*179 net60
*180 net61
*181 net62
*182 net63
*183 net64
*184 net65
*185 net66
*186 net67
*187 net68
*188 net69
*189 net7
*190 net70
*191 net71
*192 net72
*193 net8
*194 net9
*195 nxt0\[0\]
*196 nxt0\[1\]
*197 nxt0\[2\]
*198 nxt0\[3\]
*199 nxt0\[4\]
*200 nxt0\[5\]
*201 nxt1\[0\]
*202 nxt1\[1\]
*203 nxt1\[2\]
*204 nxt1\[3\]
*205 nxt1\[4\]
*206 nxt1\[5\]
*207 nxt2\[0\]
*208 nxt2\[1\]
*209 nxt2\[2\]
*210 nxt2\[3\]
*211 nxt2\[4\]
*212 nxt2\[5\]
*213 nxt3\[0\]
*214 nxt3\[1\]
*215 nxt3\[2\]
*216 nxt3\[3\]
*217 nxt3\[4\]
*218 nxt3\[5\]
*219 FILLER_0_105
*220 FILLER_0_111
*221 FILLER_0_113
*222 FILLER_0_121
*223 FILLER_0_15
*224 FILLER_0_27
*225 FILLER_0_29
*226 FILLER_0_3
*227 FILLER_0_35
*228 FILLER_0_55
*229 FILLER_0_57
*230 FILLER_0_83
*231 FILLER_0_93
*232 FILLER_10_11
*233 FILLER_10_23
*234 FILLER_10_27
*235 FILLER_10_40
*236 FILLER_10_47
*237 FILLER_10_51
*238 FILLER_10_82
*239 FILLER_10_92
*240 FILLER_11_108
*241 FILLER_11_113
*242 FILLER_11_24
*243 FILLER_11_28
*244 FILLER_11_3
*245 FILLER_11_57
*246 FILLER_11_77
*247 FILLER_11_88
*248 FILLER_12_29
*249 FILLER_12_59
*250 FILLER_12_7
*251 FILLER_12_83
*252 FILLER_12_85
*253 FILLER_12_91
*254 FILLER_13_121
*255 FILLER_13_3
*256 FILLER_13_85
*257 FILLER_14_11
*258 FILLER_14_111
*259 FILLER_14_119
*260 FILLER_14_40
*261 FILLER_14_82
*262 FILLER_14_91
*263 FILLER_15_102
*264 FILLER_15_110
*265 FILLER_15_113
*266 FILLER_15_117
*267 FILLER_15_25
*268 FILLER_15_3
*269 FILLER_15_54
*270 FILLER_15_57
*271 FILLER_15_73
*272 FILLER_15_81
*273 FILLER_16_112
*274 FILLER_16_119
*275 FILLER_16_15
*276 FILLER_16_29
*277 FILLER_16_3
*278 FILLER_16_85
*279 FILLER_17_11
*280 FILLER_17_110
*281 FILLER_17_121
*282 FILLER_17_55
*283 FILLER_17_57
*284 FILLER_17_63
*285 FILLER_17_7
*286 FILLER_18_120
*287 FILLER_18_15
*288 FILLER_18_27
*289 FILLER_18_3
*290 FILLER_18_38
*291 FILLER_18_50
*292 FILLER_18_62
*293 FILLER_18_96
*294 FILLER_19_111
*295 FILLER_19_113
*296 FILLER_19_15
*297 FILLER_19_27
*298 FILLER_19_3
*299 FILLER_19_39
*300 FILLER_19_51
*301 FILLER_19_55
*302 FILLER_19_57
*303 FILLER_19_69
*304 FILLER_19_80
*305 FILLER_19_89
*306 FILLER_19_99
*307 FILLER_1_15
*308 FILLER_1_23
*309 FILLER_1_3
*310 FILLER_1_52
*311 FILLER_1_60
*312 FILLER_1_89
*313 FILLER_20_105
*314 FILLER_20_111
*315 FILLER_20_113
*316 FILLER_20_15
*317 FILLER_20_27
*318 FILLER_20_29
*319 FILLER_20_3
*320 FILLER_20_41
*321 FILLER_20_49
*322 FILLER_20_55
*323 FILLER_20_57
*324 FILLER_20_69
*325 FILLER_20_77
*326 FILLER_20_83
*327 FILLER_20_85
*328 FILLER_20_93
*329 FILLER_20_98
*330 FILLER_2_107
*331 FILLER_2_18
*332 FILLER_2_24
*333 FILLER_2_35
*334 FILLER_2_6
*335 FILLER_2_69
*336 FILLER_2_78
*337 FILLER_2_83
*338 FILLER_2_85
*339 FILLER_3_111
*340 FILLER_3_119
*341 FILLER_3_15
*342 FILLER_3_3
*343 FILLER_3_65
*344 FILLER_4_111
*345 FILLER_4_119
*346 FILLER_4_27
*347 FILLER_4_29
*348 FILLER_4_3
*349 FILLER_4_73
*350 FILLER_5_102
*351 FILLER_5_110
*352 FILLER_5_113
*353 FILLER_5_3
*354 FILLER_5_46
*355 FILLER_5_80
*356 FILLER_6_121
*357 FILLER_6_49
*358 FILLER_6_7
*359 FILLER_6_74
*360 FILLER_6_82
*361 FILLER_6_88
*362 FILLER_7_113
*363 FILLER_7_26
*364 FILLER_7_60
*365 FILLER_7_68
*366 FILLER_7_7
*367 FILLER_7_91
*368 FILLER_8_27
*369 FILLER_8_3
*370 FILLER_8_64
*371 FILLER_8_75
*372 FILLER_8_82
*373 FILLER_8_85
*374 FILLER_9_102
*375 FILLER_9_13
*376 FILLER_9_52
*377 FILLER_9_57
*378 FILLER_9_7
*379 FILLER_9_94
*380 PHY_EDGE_ROW_0_Left_21
*381 PHY_EDGE_ROW_0_Right_0
*382 PHY_EDGE_ROW_10_Left_31
*383 PHY_EDGE_ROW_10_Right_10
*384 PHY_EDGE_ROW_11_Left_32
*385 PHY_EDGE_ROW_11_Right_11
*386 PHY_EDGE_ROW_12_Left_33
*387 PHY_EDGE_ROW_12_Right_12
*388 PHY_EDGE_ROW_13_Left_34
*389 PHY_EDGE_ROW_13_Right_13
*390 PHY_EDGE_ROW_14_Left_35
*391 PHY_EDGE_ROW_14_Right_14
*392 PHY_EDGE_ROW_15_Left_36
*393 PHY_EDGE_ROW_15_Right_15
*394 PHY_EDGE_ROW_16_Left_37
*395 PHY_EDGE_ROW_16_Right_16
*396 PHY_EDGE_ROW_17_Left_38
*397 PHY_EDGE_ROW_17_Right_17
*398 PHY_EDGE_ROW_18_Left_39
*399 PHY_EDGE_ROW_18_Right_18
*400 PHY_EDGE_ROW_19_Left_40
*401 PHY_EDGE_ROW_19_Right_19
*402 PHY_EDGE_ROW_1_Left_22
*403 PHY_EDGE_ROW_1_Right_1
*404 PHY_EDGE_ROW_20_Left_41
*405 PHY_EDGE_ROW_20_Right_20
*406 PHY_EDGE_ROW_2_Left_23
*407 PHY_EDGE_ROW_2_Right_2
*408 PHY_EDGE_ROW_3_Left_24
*409 PHY_EDGE_ROW_3_Right_3
*410 PHY_EDGE_ROW_4_Left_25
*411 PHY_EDGE_ROW_4_Right_4
*412 PHY_EDGE_ROW_5_Left_26
*413 PHY_EDGE_ROW_5_Right_5
*414 PHY_EDGE_ROW_6_Left_27
*415 PHY_EDGE_ROW_6_Right_6
*416 PHY_EDGE_ROW_7_Left_28
*417 PHY_EDGE_ROW_7_Right_7
*418 PHY_EDGE_ROW_8_Left_29
*419 PHY_EDGE_ROW_8_Right_8
*420 PHY_EDGE_ROW_9_Left_30
*421 PHY_EDGE_ROW_9_Right_9
*422 TAP_TAPCELL_ROW_0_42
*423 TAP_TAPCELL_ROW_0_43
*424 TAP_TAPCELL_ROW_0_44
*425 TAP_TAPCELL_ROW_0_45
*426 TAP_TAPCELL_ROW_10_64
*427 TAP_TAPCELL_ROW_10_65
*428 TAP_TAPCELL_ROW_11_66
*429 TAP_TAPCELL_ROW_11_67
*430 TAP_TAPCELL_ROW_12_68
*431 TAP_TAPCELL_ROW_12_69
*432 TAP_TAPCELL_ROW_13_70
*433 TAP_TAPCELL_ROW_13_71
*434 TAP_TAPCELL_ROW_14_72
*435 TAP_TAPCELL_ROW_14_73
*436 TAP_TAPCELL_ROW_15_74
*437 TAP_TAPCELL_ROW_15_75
*438 TAP_TAPCELL_ROW_16_76
*439 TAP_TAPCELL_ROW_16_77
*440 TAP_TAPCELL_ROW_17_78
*441 TAP_TAPCELL_ROW_17_79
*442 TAP_TAPCELL_ROW_18_80
*443 TAP_TAPCELL_ROW_18_81
*444 TAP_TAPCELL_ROW_19_82
*445 TAP_TAPCELL_ROW_19_83
*446 TAP_TAPCELL_ROW_1_46
*447 TAP_TAPCELL_ROW_1_47
*448 TAP_TAPCELL_ROW_20_84
*449 TAP_TAPCELL_ROW_20_85
*450 TAP_TAPCELL_ROW_20_86
*451 TAP_TAPCELL_ROW_20_87
*452 TAP_TAPCELL_ROW_2_48
*453 TAP_TAPCELL_ROW_2_49
*454 TAP_TAPCELL_ROW_3_50
*455 TAP_TAPCELL_ROW_3_51
*456 TAP_TAPCELL_ROW_4_52
*457 TAP_TAPCELL_ROW_4_53
*458 TAP_TAPCELL_ROW_5_54
*459 TAP_TAPCELL_ROW_5_55
*460 TAP_TAPCELL_ROW_6_56
*461 TAP_TAPCELL_ROW_6_57
*462 TAP_TAPCELL_ROW_7_58
*463 TAP_TAPCELL_ROW_7_59
*464 TAP_TAPCELL_ROW_8_60
*465 TAP_TAPCELL_ROW_8_61
*466 TAP_TAPCELL_ROW_9_62
*467 TAP_TAPCELL_ROW_9_63
*468 _049_
*469 _050_
*470 _051_
*471 _052_
*472 _053_
*473 _054_
*474 _055_
*475 _056_
*476 _057_
*477 _058_
*478 _059_
*479 _060_
*480 _061_
*481 _062_
*482 _063_
*483 _064_
*484 _065_
*485 _066_
*486 _067_
*487 _068_
*488 _069_
*489 _070_
*490 _071_
*491 _072_
*492 _073_
*493 _074_
*494 _075_
*495 _076_
*496 _077_
*497 _078_
*498 _079_
*499 _080_
*500 _081_
*501 _082_
*502 _083_
*503 _084_
*504 _085_
*505 _086_
*506 _087_
*507 _088_
*508 _089_
*509 _090_
*510 _091_
*511 _092_
*512 _093_
*513 _094_
*514 _095_
*515 _096_
*516 _097_
*517 _098_
*518 _099_
*519 _100_
*520 _101_
*521 _102_
*522 _103_
*523 _104_
*524 _105_
*525 _106_
*526 _107_
*527 _108_
*528 _109_
*529 _110_
*530 _111_
*531 _112_
*532 _113_
*533 _114_
*534 _115_
*535 _116_
*536 _117_
*537 _118_
*538 _119_
*539 _120_
*540 _121_
*541 _122_
*542 _123_
*543 _124_
*544 _125_
*545 _126_
*546 _127_
*547 _128_
*548 _129_
*549 _130_
*550 _131_
*551 _132_
*552 _133_
*553 _134_
*554 _135_
*555 _136_
*556 _137_
*557 _138_
*558 _139_
*559 _140_
*560 _141_
*561 _142_
*562 _143_
*563 _144_
*564 _145_
*565 _146_
*566 _147_
*567 _148_
*568 _149_
*569 _150_
*570 _151_
*571 _152_
*572 _153_
*573 _154_
*574 _155_
*575 _156_
*576 _157_
*577 _158_
*578 _159_
*579 _160_
*580 _161_
*581 _162_
*582 _163_
*583 _164_
*584 _165_
*585 _166_
*586 _167_
*587 _168_
*588 _169_
*589 _170_
*590 _171_
*591 _172_
*592 _173_
*593 _174_
*594 _175_
*595 _176_
*596 _177_
*597 _178_
*598 _179_
*599 _180_
*600 _181_
*601 _182_
*602 _183_
*603 _184_
*604 clkbuf_0_clk
*605 clkbuf_2_0__f_clk
*606 clkbuf_2_1__f_clk
*607 clkbuf_2_2__f_clk
*608 clkbuf_2_3__f_clk
*609 clkload0
*610 clkload1
*611 clkload2
*612 fanout28
*613 fanout29
*614 fanout30
*615 fanout31
*616 fanout32
*617 fanout33
*618 fanout34
*619 fanout35
*620 fanout36
*621 fanout37
*622 hold1
*623 hold10
*624 hold11
*625 hold12
*626 hold13
*627 hold14
*628 hold15
*629 hold16
*630 hold17
*631 hold18
*632 hold19
*633 hold2
*634 hold20
*635 hold21
*636 hold22
*637 hold23
*638 hold24
*639 hold25
*640 hold26
*641 hold27
*642 hold28
*643 hold29
*644 hold3
*645 hold30
*646 hold31
*647 hold4
*648 hold5
*649 hold6
*650 hold7
*651 hold8
*652 hold9
*653 input1
*654 input2
*655 max_cap27
*656 mini_light_up_game_38
*657 mini_light_up_game_39
*658 mini_light_up_game_40
*659 mini_light_up_game_41
*660 output10
*661 output11
*662 output12
*663 output13
*664 output14
*665 output15
*666 output16
*667 output17
*668 output18
*669 output19
*670 output20
*671 output21
*672 output22
*673 output23
*674 output24
*675 output25
*676 output26
*677 output3
*678 output4
*679 output5
*680 output6
*681 output7
*682 output8
*683 output9

*PORTS
btn I
clk I
reset I
seg0[0] O
seg0[1] O
seg0[2] O
seg0[3] O
seg0[4] O
seg0[5] O
seg0[6] O
seg1[0] O
seg1[1] O
seg1[2] O
seg1[3] O
seg1[4] O
seg1[5] O
seg1[6] O
seg2[0] O
seg2[1] O
seg2[2] O
seg2[3] O
seg2[4] O
seg2[5] O
seg2[6] O
seg3[0] O
seg3[1] O
seg3[2] O
seg3[3] O
seg3[4] O
seg3[5] O
seg3[6] O

*D_NET *3 0.00084808
*CONN
*P btn I
*I *653:A I *D sky130_fd_sc_hd__buf_1
*CAP
1 btn 0.000287484
2 *653:A 0.000287484
3 *653:A seg0[1] 9.25475e-05
4 *653:A seg3[4] 9.25475e-05
5 *653:A *555:A 3.59194e-05
6 *653:A *621:A 0
7 *653:A *127:12 5.20968e-05
*RES
1 btn *653:A 7.71003 
*END

*D_NET *4 0.00572961
*CONN
*P clk I
*I *604:A I *D sky130_fd_sc_hd__clkbuf_16
*CAP
1 clk 0.00209947
2 *604:A 0.00209947
3 *604:A seg1[0] 3.14094e-05
4 *604:A seg1[2] 7.32038e-05
5 *604:A seg1[5] 0
6 *604:A *493:A2 0.000464203
7 *604:A *493:B1 1.7635e-05
8 *604:A *502:B1 9.54469e-05
9 *604:A *504:A 0.000210862
10 *604:A *92:65 8.17606e-05
11 *604:A *92:82 0.000217184
12 *604:A *93:12 1.1701e-05
13 *604:A *96:87 8.30822e-05
14 *604:A *114:12 0.000114492
15 *604:A *148:136 0
16 *604:A *148:140 0.000129694
*RES
1 clk *604:A 18.4051 
*END

*D_NET *5 0.000642945
*CONN
*P reset I
*I *654:A I *D sky130_fd_sc_hd__buf_1
*CAP
1 reset 0.000321473
2 *654:A 0.000321473
3 *654:A *488:B1 0
4 *654:A *138:14 0
*RES
1 reset *654:A 6.43503 
*END

*D_NET *6 0.000928945
*CONN
*P seg0[0] O
*I *677:X O *D sky130_fd_sc_hd__buf_2
*CAP
1 seg0[0] 0.00034006
2 *677:X 0.00034006
3 seg0[0] seg0[1] 0.000102216
4 seg0[0] *478:B1 7.63125e-05
5 seg0[0] *677:A 7.0296e-05
*RES
1 *677:X seg0[0] 8.0233 
*END

*D_NET *7 0.00147678
*CONN
*P seg0[1] O
*I *678:X O *D sky130_fd_sc_hd__buf_2
*CAP
1 seg0[1] 0.000435849
2 *678:X 0.000435849
3 seg0[1] seg3[4] 0
4 seg0[1] *91:149 0.000249476
5 seg0[1] *95:118 5.50305e-05
6 seg0[1] *156:34 0.000105806
7 seg0[0] seg0[1] 0.000102216
8 *653:A seg0[1] 9.25475e-05
*RES
1 *678:X seg0[1] 6.56597 
*END

*D_NET *8 0.00149264
*CONN
*P seg0[2] O
*I *679:X O *D sky130_fd_sc_hd__buf_2
*CAP
1 seg0[2] 0.000546708
2 *679:X 0.000546708
3 seg0[2] seg0[3] 0
4 seg0[2] *481:A1 0.000315527
5 seg0[2] *516:A2 1.13341e-05
6 seg0[2] *534:A 7.23602e-05
*RES
1 *679:X seg0[2] 12.6 
*END

*D_NET *9 0.00158918
*CONN
*P seg0[3] O
*I *680:X O *D sky130_fd_sc_hd__buf_2
*CAP
1 seg0[3] 0.000600891
2 *680:X 0.000600891
3 seg0[3] seg0[4] 4.82919e-05
4 seg0[3] *481:A1 7.47145e-05
5 seg0[3] *481:A3 5.33085e-05
6 seg0[3] *534:A 5.46877e-05
7 seg0[3] *147:125 0.00015639
8 seg0[2] seg0[3] 0
*RES
1 *680:X seg0[3] 13.74 
*END

*D_NET *10 0.00104444
*CONN
*P seg0[4] O
*I *681:X O *D sky130_fd_sc_hd__buf_2
*CAP
1 seg0[4] 0.000470242
2 *681:X 0.000470242
3 seg0[4] seg0[5] 0
4 seg0[4] *534:A 0
5 seg0[4] *680:A 5.56629e-05
6 seg0[4] *681:A 0
7 seg0[3] seg0[4] 4.82919e-05
*RES
1 *681:X seg0[4] 11.895 
*END

*D_NET *11 0.00144089
*CONN
*P seg0[5] O
*I *682:X O *D sky130_fd_sc_hd__buf_2
*CAP
1 seg0[5] 0.000598824
2 *682:X 0.000598824
3 seg0[5] *487:A2 1.61831e-05
4 seg0[5] *488:A1 0.000203178
5 seg0[5] *681:A 5.83121e-06
6 seg0[5] *148:49 1.45272e-05
7 seg0[5] *148:62 3.52139e-06
8 seg0[4] seg0[5] 0
*RES
1 *682:X seg0[5] 12.945 
*END

*D_NET *12 0.00106063
*CONN
*P seg0[6] O
*I *656:LO O *D sky130_fd_sc_hd__conb_1
*CAP
1 seg0[6] 0.000427791
2 *656:LO 0.000427791
3 seg0[6] seg2[4] 0
4 seg0[6] seg2[5] 0
5 seg0[6] *516:A1 4.25154e-05
6 seg0[6] *548:A 0.000115854
7 seg0[6] *584:RESET_B 4.66826e-05
8 seg0[6] *669:A 0
*RES
1 *656:LO seg0[6] 11.64 
*END

*D_NET *13 0.000667486
*CONN
*P seg1[0] O
*I *683:X O *D sky130_fd_sc_hd__buf_2
*CAP
1 seg1[0] 0.000315123
2 *683:X 0.000315123
3 seg1[0] *87:47 5.83121e-06
4 *604:A seg1[0] 3.14094e-05
*RES
1 *683:X seg1[0] 7.1793 
*END

*D_NET *14 0.000873549
*CONN
*P seg1[1] O
*I *660:X O *D sky130_fd_sc_hd__buf_2
*CAP
1 seg1[1] 0.000436775
2 *660:X 0.000436775
*RES
1 *660:X seg1[1] 10.695 
*END

*D_NET *15 0.000531287
*CONN
*P seg1[2] O
*I *661:X O *D sky130_fd_sc_hd__buf_2
*CAP
1 seg1[2] 0.000187228
2 *661:X 0.000187228
3 seg1[2] seg1[5] 7.56675e-05
4 seg1[2] *87:49 7.96104e-06
5 *604:A seg1[2] 7.32038e-05
*RES
1 *661:X seg1[2] 5.5835 
*END

*D_NET *16 0.000599604
*CONN
*P seg1[3] O
*I *662:X O *D sky130_fd_sc_hd__buf_2
*CAP
1 seg1[3] 0.000259768
2 *662:X 0.000259768
3 seg1[3] seg1[4] 3.14094e-05
4 seg1[3] seg1[5] 0
5 seg1[3] seg2[0] 4.86576e-05
6 seg1[3] seg2[1] 0
*RES
1 *662:X seg1[3] 6.0935 
*END

*D_NET *17 0.000667914
*CONN
*P seg1[4] O
*I *663:X O *D sky130_fd_sc_hd__buf_2
*CAP
1 seg1[4] 0.000305182
2 *663:X 0.000305182
3 seg1[4] seg1[5] 2.24901e-05
4 seg1[4] *578:CLK 3.64998e-06
5 seg1[3] seg1[4] 3.14094e-05
*RES
1 *663:X seg1[4] 7.1793 
*END

*D_NET *18 0.000876451
*CONN
*P seg1[5] O
*I *664:X O *D sky130_fd_sc_hd__buf_2
*CAP
1 seg1[5] 0.000335975
2 *664:X 0.000335975
3 seg1[5] *503:A 0
4 seg1[5] *541:A 0.000106344
5 seg1[2] seg1[5] 7.56675e-05
6 seg1[3] seg1[5] 0
7 seg1[4] seg1[5] 2.24901e-05
8 *604:A seg1[5] 0
*RES
1 *664:X seg1[5] 6.1581 
*END

*D_NET *19 0.000569321
*CONN
*P seg1[6] O
*I *657:LO O *D sky130_fd_sc_hd__conb_1
*CAP
1 seg1[6] 0.000237158
2 *657:LO 0.000237158
3 seg1[6] seg3[6] 9.50048e-05
*RES
1 *657:LO seg1[6] 5.92503 
*END

*D_NET *20 0.000884656
*CONN
*P seg2[0] O
*I *665:X O *D sky130_fd_sc_hd__buf_2
*CAP
1 seg2[0] 0.000380857
2 *665:X 0.000380857
3 seg2[0] seg2[1] 3.6993e-05
4 seg2[0] *662:A 3.72916e-05
5 seg1[3] seg2[0] 4.86576e-05
*RES
1 *665:X seg2[0] 8.62043 
*END

*D_NET *21 0.000601394
*CONN
*P seg2[1] O
*I *666:X O *D sky130_fd_sc_hd__buf_2
*CAP
1 seg2[1] 0.000270956
2 *666:X 0.000270956
3 seg2[1] seg2[2] 2.24901e-05
4 seg2[1] seg2[3] 0
5 seg1[3] seg2[1] 0
6 seg2[0] seg2[1] 3.6993e-05
*RES
1 *666:X seg2[1] 5.92503 
*END

*D_NET *22 0.000660243
*CONN
*P seg2[2] O
*I *667:X O *D sky130_fd_sc_hd__buf_2
*CAP
1 seg2[2] 0.000303172
2 *667:X 0.000303172
3 seg2[2] seg2[3] 3.14094e-05
4 seg2[1] seg2[2] 2.24901e-05
*RES
1 *667:X seg2[2] 7.1793 
*END

*D_NET *23 0.000468911
*CONN
*P seg2[3] O
*I *668:X O *D sky130_fd_sc_hd__buf_2
*CAP
1 seg2[3] 0.00021567
2 *668:X 0.00021567
3 seg2[3] *85:48 6.16226e-06
4 seg2[1] seg2[3] 0
5 seg2[2] seg2[3] 3.14094e-05
*RES
1 *668:X seg2[3] 4.90503 
*END

*D_NET *24 0.000949882
*CONN
*P seg2[4] O
*I *669:X O *D sky130_fd_sc_hd__buf_2
*CAP
1 seg2[4] 0.000413145
2 *669:X 0.000413145
3 seg2[4] *516:A1 0.000123592
4 seg0[6] seg2[4] 0
*RES
1 *669:X seg2[4] 10.53 
*END

*D_NET *25 0.00129094
*CONN
*P seg2[5] O
*I *670:X O *D sky130_fd_sc_hd__buf_2
*CAP
1 seg2[5] 0.00057122
2 *670:X 0.00057122
3 seg2[5] *516:A1 4.82919e-05
4 seg2[5] *516:A2 6.66464e-05
5 seg2[5] *516:B1 3.52139e-06
6 seg2[5] *670:A 3.00381e-05
7 seg0[6] seg2[5] 0
*RES
1 *670:X seg2[5] 12.81 
*END

*D_NET *26 0.000595697
*CONN
*P seg2[6] O
*I *658:LO O *D sky130_fd_sc_hd__conb_1
*CAP
1 seg2[6] 0.000297848
2 *658:LO 0.000297848
*RES
1 *658:LO seg2[6] 7.3443 
*END

*D_NET *27 0.000933215
*CONN
*P seg3[0] O
*I *671:X O *D sky130_fd_sc_hd__buf_2
*CAP
1 seg3[0] 0.000456053
2 *671:X 0.000456053
3 seg3[0] seg3[1] 0
4 seg3[0] *671:A 2.11084e-05
*RES
1 *671:X seg3[0] 11.04 
*END

*D_NET *28 0.00086547
*CONN
*P seg3[1] O
*I *672:X O *D sky130_fd_sc_hd__buf_2
*CAP
1 seg3[1] 0.000432735
2 *672:X 0.000432735
3 seg3[0] seg3[1] 0
*RES
1 *672:X seg3[1] 10.695 
*END

*D_NET *29 0.00086547
*CONN
*P seg3[2] O
*I *673:X O *D sky130_fd_sc_hd__buf_2
*CAP
1 seg3[2] 0.000432735
2 *673:X 0.000432735
*RES
1 *673:X seg3[2] 10.695 
*END

*D_NET *30 0.000886518
*CONN
*P seg3[3] O
*I *674:X O *D sky130_fd_sc_hd__buf_2
*CAP
1 seg3[3] 0.000334189
2 *674:X 0.000334189
3 seg3[3] seg3[5] 0.000102216
4 seg3[3] *524:A2 0.000115923
*RES
1 *674:X seg3[3] 8.0233 
*END

*D_NET *31 0.000622273
*CONN
*P seg3[4] O
*I *675:X O *D sky130_fd_sc_hd__buf_2
*CAP
1 seg3[4] 0.000186928
2 *675:X 0.000186928
3 seg3[4] seg3[5] 9.33825e-05
4 seg3[4] *555:A 6.24871e-05
5 seg0[1] seg3[4] 0
6 *653:A seg3[4] 9.25475e-05
*RES
1 *675:X seg3[4] 5.4733 
*END

*D_NET *32 0.000565966
*CONN
*P seg3[5] O
*I *676:X O *D sky130_fd_sc_hd__buf_2
*CAP
1 seg3[5] 0.000163952
2 *676:X 0.000163952
3 seg3[5] *633:A 4.24632e-05
4 seg3[3] seg3[5] 0.000102216
5 seg3[4] seg3[5] 9.33825e-05
*RES
1 *676:X seg3[5] 5.2183 
*END

*D_NET *33 0.000569953
*CONN
*P seg3[6] O
*I *659:LO O *D sky130_fd_sc_hd__conb_1
*CAP
1 seg3[6] 0.000237474
2 *659:LO 0.000237474
3 seg1[6] seg3[6] 9.50048e-05
*RES
1 *659:LO seg3[6] 5.92503 
*END

*D_NET *34 0.000664121
*CONN
*I *568:RESET_B I *D sky130_fd_sc_hd__dfrtp_1
*I *470:Y O *D sky130_fd_sc_hd__inv_2
*CAP
1 *568:RESET_B 0.000162314
2 *470:Y 0.000162314
3 *568:RESET_B *470:A 5.83121e-06
4 *568:RESET_B *478:A2 0.000113927
5 *568:RESET_B *621:A 9.30717e-05
6 *568:RESET_B *677:A 1.37895e-05
7 *568:RESET_B *156:34 5.05437e-05
8 *568:RESET_B *195:6 6.23295e-05
*RES
1 *470:Y *568:RESET_B 8.6075 
*END

*D_NET *35 0.000506598
*CONN
*I *569:RESET_B I *D sky130_fd_sc_hd__dfrtp_1
*I *533:Y O *D sky130_fd_sc_hd__inv_2
*CAP
1 *569:RESET_B 0.000141198
2 *533:Y 0.000141198
3 *569:RESET_B *477:A1 0.000112123
4 *569:RESET_B *479:B1 3.69904e-05
5 *569:RESET_B *96:54 0
6 *569:RESET_B *156:34 7.50884e-05
*RES
1 *533:Y *569:RESET_B 8.765 
*END

*D_NET *36 0.000248042
*CONN
*I *570:RESET_B I *D sky130_fd_sc_hd__dfrtp_1
*I *534:Y O *D sky130_fd_sc_hd__inv_2
*CAP
1 *570:RESET_B 9.07676e-05
2 *534:Y 9.07676e-05
3 *570:RESET_B *481:B1 4.70343e-05
4 *570:RESET_B *564:A 0
5 *570:RESET_B *640:A 1.94723e-05
*RES
1 *534:Y *570:RESET_B 7.49 
*END

*D_NET *37 0.000369587
*CONN
*I *571:RESET_B I *D sky130_fd_sc_hd__dfrtp_1
*I *535:Y O *D sky130_fd_sc_hd__inv_2
*CAP
1 *571:RESET_B 6.84162e-05
2 *535:Y 6.84162e-05
3 *571:RESET_B *483:A3 9.30717e-05
4 *571:RESET_B *534:A 9.30717e-05
5 *571:RESET_B *197:10 4.66108e-05
*RES
1 *535:Y *571:RESET_B 7.175 
*END

*D_NET *38 0.00116461
*CONN
*I *572:RESET_B I *D sky130_fd_sc_hd__dfrtp_1
*I *536:Y O *D sky130_fd_sc_hd__inv_2
*CAP
1 *572:RESET_B 0.000314947
2 *536:Y 0.000314947
3 *572:RESET_B *488:B1 8.65961e-05
4 *572:RESET_B *536:A 0.000114912
5 *572:RESET_B *537:A 0.000238919
6 *572:RESET_B *638:A 6.65725e-05
7 *572:RESET_B *107:12 2.77183e-05
*RES
1 *536:Y *572:RESET_B 7.5175 
*END

*D_NET *39 0.000247409
*CONN
*I *573:RESET_B I *D sky130_fd_sc_hd__dfrtp_1
*I *537:Y O *D sky130_fd_sc_hd__inv_2
*CAP
1 *573:RESET_B 6.7495e-05
2 *537:Y 6.7495e-05
3 *573:RESET_B *488:A2 4.24575e-05
4 *573:RESET_B *638:A 5.13155e-05
5 *573:RESET_B *138:14 0
6 *573:RESET_B *200:10 1.86458e-05
*RES
1 *537:Y *573:RESET_B 7.1225 
*END

*D_NET *40 0.000641835
*CONN
*I *574:RESET_B I *D sky130_fd_sc_hd__dfrtp_1
*I *538:Y O *D sky130_fd_sc_hd__inv_2
*CAP
1 *574:RESET_B 0.000273228
2 *538:Y 0.000273228
3 *574:RESET_B *575:CLK 5.05437e-05
4 *574:RESET_B *575:D 2.86975e-05
5 *574:RESET_B *87:41 1.61387e-05
*RES
1 *538:Y *574:RESET_B 9.5375 
*END

*D_NET *41 0.000294988
*CONN
*I *575:RESET_B I *D sky130_fd_sc_hd__dfrtp_1
*I *539:Y O *D sky130_fd_sc_hd__inv_2
*CAP
1 *575:RESET_B 0.000136456
2 *539:Y 0.000136456
3 *575:RESET_B *575:D 2.20753e-05
*RES
1 *539:Y *575:RESET_B 3.3775 
*END

*D_NET *42 0.00027148
*CONN
*I *576:RESET_B I *D sky130_fd_sc_hd__dfrtp_1
*I *540:Y O *D sky130_fd_sc_hd__inv_2
*CAP
1 *576:RESET_B 9.09551e-05
2 *540:Y 9.09551e-05
3 *576:RESET_B *503:A 5.53249e-06
4 *576:RESET_B *576:D 5.7344e-05
5 *576:RESET_B *664:A 2.66935e-05
6 *576:RESET_B *74:67 0
7 *576:RESET_B *87:47 0
8 *576:RESET_B *87:49 0
*RES
1 *540:Y *576:RESET_B 7.49 
*END

*D_NET *43 0.00105599
*CONN
*I *577:RESET_B I *D sky130_fd_sc_hd__dfrtp_1
*I *541:Y O *D sky130_fd_sc_hd__inv_2
*CAP
1 *577:RESET_B 0.000191292
2 *541:Y 0.000191292
3 *577:RESET_B *577:CLK 1.82476e-05
4 *577:RESET_B *577:D 0.000296487
5 *577:RESET_B *663:A 0.00031163
6 *577:RESET_B *87:49 4.7043e-05
*RES
1 *541:Y *577:RESET_B 10.9925 
*END

*D_NET *44 0.00157553
*CONN
*I *578:RESET_B I *D sky130_fd_sc_hd__dfrtp_1
*I *542:Y O *D sky130_fd_sc_hd__inv_2
*CAP
1 *578:RESET_B 0.000355121
2 *542:Y 0.000355121
3 *578:RESET_B *498:A1 0
4 *578:RESET_B *499:B1 0.00010899
5 *578:RESET_B *664:A 6.82367e-05
6 *578:RESET_B *87:12 0
7 *578:RESET_B *113:6 0.000158066
8 *578:RESET_B *152:26 8.51746e-05
9 *578:RESET_B *152:32 6.90876e-05
10 *578:RESET_B *205:12 0.000277061
11 *578:RESET_B *206:14 9.86689e-05
*RES
1 *542:Y *578:RESET_B 14.5025 
*END

*D_NET *45 0.000551259
*CONN
*I *579:RESET_B I *D sky130_fd_sc_hd__dfrtp_1
*I *543:Y O *D sky130_fd_sc_hd__inv_2
*CAP
1 *579:RESET_B 0.000150529
2 *543:Y 0.000150529
3 *579:RESET_B *504:C 1.08758e-05
4 *579:RESET_B *91:72 0.000192715
5 *579:RESET_B *114:12 4.66108e-05
*RES
1 *543:Y *579:RESET_B 4.3375 
*END

*D_NET *46 0.000396912
*CONN
*I *580:RESET_B I *D sky130_fd_sc_hd__dfrtp_1
*I *544:Y O *D sky130_fd_sc_hd__inv_2
*CAP
1 *580:RESET_B 5.05897e-05
2 *544:Y 5.05897e-05
3 *580:RESET_B *519:B 0.000189262
4 *580:RESET_B *85:35 2.05056e-05
5 *580:RESET_B *85:37 8.59643e-05
*RES
1 *544:Y *580:RESET_B 3.3775 
*END

*D_NET *47 0.000563776
*CONN
*I *581:RESET_B I *D sky130_fd_sc_hd__dfrtp_1
*I *545:Y O *D sky130_fd_sc_hd__inv_2
*CAP
1 *581:RESET_B 0.000149449
2 *545:Y 0.000149449
3 *581:RESET_B *509:B1 1.13047e-05
4 *581:RESET_B *80:12 9.21064e-05
5 *581:RESET_B *154:35 0.000161467
*RES
1 *545:Y *581:RESET_B 8.5025 
*END

*D_NET *48 0.0018386
*CONN
*I *582:RESET_B I *D sky130_fd_sc_hd__dfrtp_1
*I *546:Y O *D sky130_fd_sc_hd__inv_2
*CAP
1 *582:RESET_B 0.000603703
2 *546:Y 0.000603703
3 *582:RESET_B *514:A2 5.4256e-05
4 *582:RESET_B *518:A 0
5 *582:RESET_B *546:A 0.00019234
6 *582:RESET_B *583:D 0.000357881
7 *582:RESET_B *632:A 2.67222e-05
*RES
1 *546:Y *582:RESET_B 15.05 
*END

*D_NET *49 0.000149589
*CONN
*I *583:RESET_B I *D sky130_fd_sc_hd__dfrtp_1
*I *547:Y O *D sky130_fd_sc_hd__inv_2
*CAP
1 *583:RESET_B 7.47946e-05
2 *547:Y 7.47946e-05
3 *583:RESET_B *514:A2 0
*RES
1 *547:Y *583:RESET_B 6.725 
*END

*D_NET *50 0.00174211
*CONN
*I *584:RESET_B I *D sky130_fd_sc_hd__dfrtp_1
*I *548:Y O *D sky130_fd_sc_hd__inv_2
*CAP
1 *584:RESET_B 0.000436592
2 *548:Y 0.000436592
3 *584:RESET_B *514:A3 0.000139238
4 *584:RESET_B *514:B1 0.000291372
5 *584:RESET_B *516:A1 0.000125479
6 *584:RESET_B *548:A 0
7 *584:RESET_B *669:A 7.23602e-05
8 *584:RESET_B *150:53 0.000127424
9 *584:RESET_B *150:57 1.52776e-05
10 *584:RESET_B *154:78 5.10957e-05
11 seg0[6] *584:RESET_B 4.66826e-05
*RES
1 *548:Y *584:RESET_B 14.78 
*END

*D_NET *51 0.000404452
*CONN
*I *585:RESET_B I *D sky130_fd_sc_hd__dfrtp_1
*I *549:Y O *D sky130_fd_sc_hd__inv_2
*CAP
1 *585:RESET_B 5.72272e-05
2 *549:Y 5.72272e-05
3 *585:RESET_B *548:A 9.16019e-05
4 *585:RESET_B *585:CLK 7.78022e-05
5 *585:RESET_B *585:D 0.000120593
*RES
1 *549:Y *585:RESET_B 7.4675 
*END

*D_NET *52 0.000749486
*CONN
*I *586:RESET_B I *D sky130_fd_sc_hd__dfrtp_1
*I *550:Y O *D sky130_fd_sc_hd__inv_2
*CAP
1 *586:RESET_B 0.000244891
2 *550:Y 0.000244891
3 *586:RESET_B *523:B1 3.09164e-05
4 *586:RESET_B *524:A2 5.72004e-05
5 *586:RESET_B *121:16 5.30673e-05
6 *586:RESET_B *122:10 0.00011852
*RES
1 *550:Y *586:RESET_B 10.3925 
*END

*D_NET *53 0.000632896
*CONN
*I *587:RESET_B I *D sky130_fd_sc_hd__dfrtp_1
*I *551:Y O *D sky130_fd_sc_hd__inv_2
*CAP
1 *587:RESET_B 0.000178227
2 *551:Y 0.000178227
3 *587:RESET_B *551:A 7.49327e-05
4 *587:RESET_B *156:115 0.000201508
*RES
1 *551:Y *587:RESET_B 4.7575 
*END

*D_NET *54 0.000253431
*CONN
*I *588:RESET_B I *D sky130_fd_sc_hd__dfrtp_1
*I *552:Y O *D sky130_fd_sc_hd__inv_2
*CAP
1 *588:RESET_B 7.95754e-05
2 *552:Y 7.95754e-05
3 *588:RESET_B *525:B1 0
4 *588:RESET_B *642:A 0
5 *588:RESET_B *673:A 9.428e-05
6 *588:RESET_B *92:12 0
*RES
1 *552:Y *588:RESET_B 7.49 
*END

*D_NET *55 0.000641557
*CONN
*I *589:RESET_B I *D sky130_fd_sc_hd__dfrtp_1
*I *553:Y O *D sky130_fd_sc_hd__inv_2
*CAP
1 *589:RESET_B 0.000199189
2 *553:Y 0.000199189
3 *589:RESET_B *532:A1 0.000100139
4 *589:RESET_B *532:B1 4.99619e-05
5 *589:RESET_B *124:10 0
6 *589:RESET_B *156:115 9.30787e-05
*RES
1 *553:Y *589:RESET_B 9.1925 
*END

*D_NET *56 0.000524011
*CONN
*I *590:RESET_B I *D sky130_fd_sc_hd__dfrtp_1
*I *554:Y O *D sky130_fd_sc_hd__inv_2
*CAP
1 *590:RESET_B 8.68383e-05
2 *554:Y 8.68383e-05
3 *590:RESET_B *554:A 2.49909e-05
4 *590:RESET_B *675:A 0.00013994
5 *590:RESET_B *96:54 0
6 *590:RESET_B *156:115 0.000185405
*RES
1 *554:Y *590:RESET_B 8.195 
*END

*D_NET *57 0.00150108
*CONN
*I *591:RESET_B I *D sky130_fd_sc_hd__dfrtp_1
*I *555:Y O *D sky130_fd_sc_hd__inv_2
*CAP
1 *591:RESET_B 0.00030738
2 *555:Y 0.00030738
3 *591:RESET_B *530:A2 8.8266e-05
4 *591:RESET_B *530:B1 0.000249921
5 *591:RESET_B *531:B1 7.69078e-05
6 *591:RESET_B *555:A 7.04021e-05
7 *591:RESET_B *621:A 0.000180615
8 *591:RESET_B *676:A 4.75576e-05
9 *591:RESET_B *125:10 0.000162318
10 *591:RESET_B *127:12 1.03323e-05
*RES
1 *555:Y *591:RESET_B 13.0325 
*END

*D_NET *58 0.000624471
*CONN
*I *592:RESET_B I *D sky130_fd_sc_hd__dfrtp_1
*I *556:Y O *D sky130_fd_sc_hd__inv_2
*CAP
1 *592:RESET_B 0.000147208
2 *556:Y 0.000147208
3 *592:RESET_B *592:D 0.000120186
4 *592:RESET_B *147:107 3.90192e-05
5 *592:RESET_B *147:109 7.23533e-05
6 *592:RESET_B *147:182 9.84957e-05
7 *592:RESET_B *156:52 0
*RES
1 *556:Y *592:RESET_B 8.9225 
*END

*D_NET *59 0.000467723
*CONN
*I *593:RESET_B I *D sky130_fd_sc_hd__dfrtp_1
*I *557:Y O *D sky130_fd_sc_hd__inv_2
*CAP
1 *593:RESET_B 0.0001103
2 *557:Y 0.0001103
3 *593:RESET_B *646:A 0
4 *593:RESET_B *93:12 0
5 *593:RESET_B *155:63 8.24372e-05
6 *593:RESET_B *155:100 0.000164686
*RES
1 *557:Y *593:RESET_B 8.2325 
*END

*D_NET *60 0.000363767
*CONN
*I *594:RESET_B I *D sky130_fd_sc_hd__dfrtp_1
*I *558:Y O *D sky130_fd_sc_hd__inv_2
*CAP
1 *594:RESET_B 7.84312e-05
2 *558:Y 7.84312e-05
3 *594:RESET_B *473:C 0.0001249
4 *594:RESET_B *147:107 8.20041e-05
*RES
1 *558:Y *594:RESET_B 3.7225 
*END

*D_NET *61 0.00041718
*CONN
*I *595:SET_B I *D sky130_fd_sc_hd__dfstp_2
*I *559:Y O *D sky130_fd_sc_hd__inv_2
*CAP
1 *595:SET_B 0.000118433
2 *559:Y 0.000118433
3 *595:SET_B *92:82 0.000164672
4 *595:SET_B *96:87 0
5 *595:SET_B *154:29 1.19928e-05
6 *595:SET_B *154:35 3.64998e-06
*RES
1 *559:Y *595:SET_B 7.94 
*END

*D_NET *62 0.00113293
*CONN
*I *596:RESET_B I *D sky130_fd_sc_hd__dfrtp_4
*I *560:Y O *D sky130_fd_sc_hd__inv_2
*CAP
1 *596:RESET_B 0.000244262
2 *560:Y 0.000244262
3 *596:RESET_B *520:A3 6.01238e-05
4 *596:RESET_B *522:B1 0.000250364
5 *596:RESET_B *586:CLK 0.000228845
6 *596:RESET_B *649:A 1.19928e-05
7 *596:RESET_B *92:12 9.30787e-05
*RES
1 *560:Y *596:RESET_B 10.6775 
*END

*D_NET *63 0.000404905
*CONN
*I *597:RESET_B I *D sky130_fd_sc_hd__dfrtp_4
*I *561:Y O *D sky130_fd_sc_hd__inv_2
*CAP
1 *597:RESET_B 3.84681e-05
2 *561:Y 3.84681e-05
3 *597:RESET_B *561:A 0.000163985
4 *597:RESET_B *596:D 0.000163985
*RES
1 *561:Y *597:RESET_B 7.49 
*END

*D_NET *64 0.000179435
*CONN
*I *598:RESET_B I *D sky130_fd_sc_hd__dfrtp_4
*I *562:Y O *D sky130_fd_sc_hd__inv_2
*CAP
1 *598:RESET_B 8.97177e-05
2 *562:Y 8.97177e-05
3 *598:RESET_B *563:A 0
4 *598:RESET_B *93:93 0
*RES
1 *562:Y *598:RESET_B 6.98 
*END

*D_NET *65 0.000763909
*CONN
*I *599:RESET_B I *D sky130_fd_sc_hd__dfrtp_4
*I *563:Y O *D sky130_fd_sc_hd__inv_2
*CAP
1 *599:RESET_B 0.000198275
2 *563:Y 0.000198275
3 *599:RESET_B *564:A 1.15688e-05
4 *599:RESET_B *643:A 4.66108e-05
5 *599:RESET_B *86:65 0.000278261
6 *599:RESET_B *95:94 3.09179e-05
*RES
1 *563:Y *599:RESET_B 9.8075 
*END

*D_NET *66 0.000270509
*CONN
*I *600:RESET_B I *D sky130_fd_sc_hd__dfrtp_4
*I *564:Y O *D sky130_fd_sc_hd__inv_2
*CAP
1 *600:RESET_B 0.000102814
2 *564:Y 0.000102814
3 *600:RESET_B *516:B1 2.97004e-06
4 *600:RESET_B *564:A 3.00381e-05
5 *600:RESET_B *637:A 3.18737e-05
*RES
1 *564:Y *600:RESET_B 7.175 
*END

*D_NET *67 0.000473192
*CONN
*I *601:RESET_B I *D sky130_fd_sc_hd__dfrtp_1
*I *565:Y O *D sky130_fd_sc_hd__inv_2
*CAP
1 *601:RESET_B 7.32077e-05
2 *565:Y 7.32077e-05
3 *601:RESET_B *616:A 7.23602e-05
4 *601:RESET_B *617:A 6.68849e-05
5 *601:RESET_B *91:32 4.82863e-05
6 *601:RESET_B *93:93 0.000139245
*RES
1 *565:Y *601:RESET_B 7.685 
*END

*D_NET *68 0.000927051
*CONN
*I *602:RESET_B I *D sky130_fd_sc_hd__dfrtp_1
*I *566:Y O *D sky130_fd_sc_hd__inv_2
*CAP
1 *602:RESET_B 0.000174354
2 *566:Y 0.000174354
3 *602:RESET_B *476:A1_N 1.47256e-05
4 *602:RESET_B *566:A 1.08758e-05
5 *602:RESET_B *596:D 1.86911e-05
6 *602:RESET_B *601:D 9.5433e-05
7 *602:RESET_B *90:8 1.56428e-05
8 *602:RESET_B *91:20 5.16348e-05
9 *602:RESET_B *91:64 0.000116853
10 *602:RESET_B *152:22 4.66108e-05
11 *602:RESET_B *155:46 0.000159957
12 *602:RESET_B *155:57 4.49498e-05
13 *602:RESET_B *155:100 2.97004e-06
*RES
1 *566:Y *602:RESET_B 10.2275 
*END

*D_NET *69 0.00103446
*CONN
*I *603:RESET_B I *D sky130_fd_sc_hd__dfrtp_1
*I *567:Y O *D sky130_fd_sc_hd__inv_2
*CAP
1 *603:RESET_B 0.000219318
2 *567:Y 0.000219318
3 *603:RESET_B *473:A_N 4.11729e-05
4 *603:RESET_B *474:C 1.91597e-05
5 *603:RESET_B *475:A2 8.65961e-05
6 *603:RESET_B *567:A 5.21046e-05
7 *603:RESET_B *655:A 0.000274654
8 *603:RESET_B *83:6 7.57202e-05
9 *603:RESET_B *127:14 1.16344e-05
10 *603:RESET_B *150:15 3.47837e-05
*RES
1 *567:Y *603:RESET_B 10.5725 
*END

*D_NET *70 0.00053614
*CONN
*I *601:D I *D sky130_fd_sc_hd__dfrtp_1
*I *476:X O *D sky130_fd_sc_hd__o2bb2a_1
*CAP
1 *601:D 0.000132108
2 *476:X 0.000132108
3 *601:D *596:D 0.000101523
4 *601:D *601:CLK 6.33103e-05
5 *601:D *155:46 1.16578e-05
6 *602:RESET_B *601:D 9.5433e-05
*RES
1 *476:X *601:D 9.81 
*END

*D_NET *71 0.000543505
*CONN
*I *602:D I *D sky130_fd_sc_hd__dfrtp_1
*I *472:X O *D sky130_fd_sc_hd__a21o_1
*CAP
1 *602:D 0.000204281
2 *472:X 0.000204281
3 *602:D *472:B1 1.83847e-05
4 *602:D *476:B1 0
5 *602:D *93:93 0.000116559
*RES
1 *472:X *602:D 11.07 
*END

*D_NET *72 0.00875813
*CONN
*I *613:A I *D sky130_fd_sc_hd__buf_2
*I *501:A1 I *D sky130_fd_sc_hd__a31o_1
*I *499:A1 I *D sky130_fd_sc_hd__a31o_1
*I *468:Y O *D sky130_fd_sc_hd__inv_2
*CAP
1 *613:A 0.000835861
2 *501:A1 0.000142193
3 *499:A1 0.000189077
4 *468:Y 0.000424514
5 *72:34 0.000912524
6 *72:10 0.00184163
7 *499:A1 *497:B1 0.000112507
8 *499:A1 *74:18 0.000169345
9 *499:A1 *74:33 0.000171509
10 *501:A1 *500:A1 0
11 *501:A1 *500:B1 0
12 *501:A1 *501:A3 8.52845e-05
13 *501:A1 *501:B1 4.77719e-05
14 *501:A1 *502:A1 9.21008e-05
15 *501:A1 *148:136 8.23667e-05
16 *501:A1 *152:24 2.20014e-05
17 *613:A *517:A1 3.81908e-06
18 *613:A *640:A 5.05437e-05
19 *613:A *96:8 0.000157751
20 *613:A *96:119 0.000141467
21 *72:10 *468:A 4.66742e-05
22 *72:10 *515:A2 0.000106758
23 *72:10 *515:B1 0.000306443
24 *72:10 *517:A1 5.062e-06
25 *72:10 *600:CLK 3.41304e-05
26 *72:10 *211:10 0.000161985
27 *72:10 *212:8 4.66108e-05
28 *72:34 *497:B1 0
29 *72:34 *595:D 0.000289896
30 *72:34 *599:D 0.000118513
31 *72:34 *74:18 8.23457e-05
32 *72:34 *80:12 0.000297701
33 *72:34 *80:16 0.000209212
34 *72:34 *80:20 0.000353886
35 *72:34 *96:32 0.000494587
36 *72:34 *96:87 0.000628294
37 *72:34 *148:136 9.37731e-05
*RES
1 *468:Y *72:10 9.415 
2 *72:10 *72:34 24.46 
3 *72:34 *499:A1 6.31 
4 *72:34 *501:A1 8.795 
5 *72:10 *613:A 13.825 
*END

*D_NET *73 0.00950334
*CONN
*I *485:A2 I *D sky130_fd_sc_hd__a31o_1
*I *487:A2 I *D sky130_fd_sc_hd__a31o_1
*I *612:A I *D sky130_fd_sc_hd__buf_2
*I *469:Y O *D sky130_fd_sc_hd__inv_2
*CAP
1 *485:A2 0
2 *487:A2 0.000309884
3 *612:A 0
4 *469:Y 0.000349115
5 *73:33 0.00153928
6 *73:14 0.00157851
7 *487:A2 *488:A1 3.00381e-05
8 *487:A2 *488:A2 0
9 *487:A2 *638:A 0
10 *487:A2 *96:119 0.000292059
11 *487:A2 *107:12 0
12 *487:A2 *148:62 0.00011998
13 *487:A2 *148:75 1.52184e-05
14 *73:14 *497:A1 2.09579e-05
15 *73:14 *497:B1 9.53743e-05
16 *73:14 *662:A 0.000130445
17 *73:14 *80:12 0
18 *73:14 *91:84 3.89528e-05
19 *73:14 *93:41 9.54399e-05
20 *73:14 *94:37 0.000123592
21 *73:14 *147:14 0.000160314
22 *73:33 *474:B 1.34503e-05
23 *73:33 *478:A2 0
24 *73:33 *479:A1 4.61256e-05
25 *73:33 *479:A3 2.25119e-05
26 *73:33 *488:A2 0
27 *73:33 *490:A 5.23362e-05
28 *73:33 *497:A1 0.000259682
29 *73:33 *506:D 8.73389e-06
30 *73:33 *529:A3 0.000210151
31 *73:33 *545:A 0.000142577
32 *73:33 *567:A 2.75145e-05
33 *73:33 *590:CLK 5.33085e-05
34 *73:33 *614:A 0.000686639
35 *73:33 *80:12 0.000305634
36 *73:33 *96:54 0.000178111
37 *73:33 *107:12 0
38 *73:33 *147:182 1.7635e-05
39 *73:33 *148:75 0.000514912
40 *73:33 *148:117 0.00204868
41 seg0[5] *487:A2 1.61831e-05
*RES
1 *469:Y *73:14 13.055 
2 *73:14 *612:A 1.6 
3 *73:14 *73:33 39.14 
4 *73:33 *487:A2 10.365 
5 *73:33 *485:A2 3.6 
*END

*D_NET *74 0.00950591
*CONN
*I *472:A2 I *D sky130_fd_sc_hd__a21o_1
*I *476:A2_N I *D sky130_fd_sc_hd__o2bb2a_1
*I *502:A2 I *D sky130_fd_sc_hd__a21o_1
*I *494:A2 I *D sky130_fd_sc_hd__a21o_1
*I *492:A2 I *D sky130_fd_sc_hd__a21o_1
*I *496:A2 I *D sky130_fd_sc_hd__a21o_1
*I *498:A2 I *D sky130_fd_sc_hd__a21o_1
*I *500:A2 I *D sky130_fd_sc_hd__a21o_1
*I *471:X O *D sky130_fd_sc_hd__and4bb_2
*CAP
1 *472:A2 0.000114464
2 *476:A2_N 6.7614e-05
3 *502:A2 0
4 *494:A2 0.000185676
5 *492:A2 0.00012434
6 *496:A2 0
7 *498:A2 0.00030864
8 *500:A2 0
9 *471:X 5.48394e-05
10 *74:96 0.000332237
11 *74:67 0.00085251
12 *74:52 0.000703419
13 *74:33 0.000929263
14 *74:18 0.000557578
15 *74:12 0.000543899
16 *74:6 0.000651018
17 *472:A2 *472:A1 0.000104799
18 *472:A2 *566:A 9.53428e-06
19 *476:A2_N *566:A 4.66108e-05
20 *476:A2_N *157:47 6.07575e-06
21 *492:A2 *492:A1 0.000316799
22 *492:A2 *492:B1 8.60527e-05
23 *492:A2 *87:37 0.000137571
24 *494:A2 *491:B1 8.40269e-05
25 *494:A2 *631:A 0.000263382
26 *498:A2 *498:A1 7.47284e-05
27 *498:A2 *503:A 5.53249e-06
28 *498:A2 *503:C 0
29 *498:A2 *577:D 0
30 *498:A2 *578:D 2.56077e-05
31 *498:A2 *205:12 5.36384e-06
32 *74:6 *471:B_N 7.66083e-05
33 *74:12 *471:B_N 0.000155497
34 *74:12 *502:B1 0.000162311
35 *74:12 *598:D 8.95933e-05
36 *74:12 *646:A 0.00027042
37 *74:12 *152:14 5.4155e-06
38 *74:18 *502:B1 6.7692e-05
39 *74:18 *206:14 1.52352e-05
40 *74:33 *497:B1 2.56167e-05
41 *74:33 *499:A3 4.66108e-05
42 *74:33 *502:B1 1.20052e-05
43 *74:33 *503:C 4.78859e-05
44 *74:33 *663:A 0.000309612
45 *74:33 *93:41 0.000113964
46 *74:33 *112:6 7.34531e-05
47 *74:33 *206:14 4.89295e-05
48 *74:52 *503:A 0
49 *74:52 *503:C 4.75576e-05
50 *74:52 *93:41 0.000102654
51 *74:67 *491:A2 0
52 *74:67 *491:A3 0.00019637
53 *74:67 *491:B1 9.80943e-06
54 *74:67 *503:A 0
55 *74:67 *576:D 0
56 *74:67 *683:A 5.36384e-06
57 *74:67 *93:41 1.22676e-05
58 *74:96 *476:B1 0.000166629
59 *74:96 *614:A 7.06865e-05
60 *74:96 *615:A 0.000358944
61 *499:A1 *74:18 0.000169345
62 *499:A1 *74:33 0.000171509
63 *576:RESET_B *74:67 0
64 *72:34 *74:18 8.23457e-05
*RES
1 *471:X *74:6 2.395 
2 *74:6 *74:12 8.07 
3 *74:12 *74:18 2.895 
4 *74:18 *500:A2 1.6 
5 *74:18 *74:33 12.215 
6 *74:33 *498:A2 11.86 
7 *74:33 *74:52 3.42 
8 *74:52 *496:A2 3.6 
9 *74:52 *74:67 9.5 
10 *74:67 *492:A2 9.785 
11 *74:67 *494:A2 5.5 
12 *74:12 *502:A2 1.6 
13 *74:6 *74:96 8.95 
14 *74:96 *476:A2_N 2.395 
15 *74:96 *472:A2 3.805 
*END

*D_NET *75 0.000457252
*CONN
*I *475:B1 I *D sky130_fd_sc_hd__a21o_1
*I *473:X O *D sky130_fd_sc_hd__and4b_1
*CAP
1 *475:B1 0.000118166
2 *473:X 0.000118166
3 *475:B1 *476:B1 4.82919e-05
4 *475:B1 *92:126 0.00012657
5 *475:B1 *93:93 0
6 *475:B1 *150:21 4.60584e-05
*RES
1 *473:X *475:B1 9.51 
*END

*D_NET *76 0.00117809
*CONN
*I *655:A I *D sky130_fd_sc_hd__clkbuf_2
*I *475:A2 I *D sky130_fd_sc_hd__a21o_1
*I *474:Y O *D sky130_fd_sc_hd__nor4b_1
*CAP
1 *655:A 6.271e-05
2 *475:A2 0.000130375
3 *474:Y 0
4 *76:4 0.000193085
5 *475:A2 *474:C 0.000117519
6 *475:A2 *93:93 9.5224e-05
7 *475:A2 *147:182 0
8 *475:A2 *150:21 0
9 *655:A *474:C 7.66083e-05
10 *655:A *127:12 7.60965e-05
11 *655:A *127:14 6.52265e-05
12 *603:RESET_B *475:A2 8.65961e-05
13 *603:RESET_B *655:A 0.000274654
*RES
1 *474:Y *76:4 1.6 
2 *76:4 *475:A2 8.795 
3 *76:4 *655:A 4.465 
*END

*D_NET *77 0.00215159
*CONN
*I *476:B1 I *D sky130_fd_sc_hd__o2bb2a_1
*I *475:X O *D sky130_fd_sc_hd__a21o_1
*CAP
1 *476:B1 0.000821926
2 *475:X 0.000821926
3 *476:B1 *473:A_N 3.76596e-05
4 *476:B1 *473:B 1.88904e-05
5 *476:B1 *603:D 5.23362e-05
6 *476:B1 *614:A 0
7 *476:B1 *615:A 0
8 *476:B1 *84:10 0
9 *476:B1 *84:36 0
10 *476:B1 *92:126 2.63406e-05
11 *476:B1 *93:93 0
12 *476:B1 *127:44 0
13 *476:B1 *127:57 0
14 *476:B1 *150:21 8.65961e-05
15 *476:B1 *152:118 7.09921e-05
16 *475:B1 *476:B1 4.82919e-05
17 *602:D *476:B1 0
18 *74:96 *476:B1 0.000166629
*RES
1 *475:X *476:B1 21.33 
*END

*D_NET *78 0.00147392
*CONN
*I *490:C I *D sky130_fd_sc_hd__and3_1
*I *489:X O *D sky130_fd_sc_hd__and4_1
*CAP
1 *490:C 0.000323972
2 *489:X 0.000323972
3 *490:C *483:B1 8.70204e-05
4 *490:C *484:A1 3.95269e-05
5 *490:C *489:D 3.41395e-05
6 *490:C *634:A 0.000116158
7 *490:C *681:A 4.82863e-05
8 *490:C *86:16 0.000121094
9 *490:C *86:99 4.94404e-05
10 *490:C *95:94 4.66108e-05
11 *490:C *96:54 1.70906e-05
12 *490:C *146:12 0.000266605
13 *490:C *148:75 0
*RES
1 *489:X *490:C 14.685 
*END

*D_NET *79 0.00266358
*CONN
*I *504:C I *D sky130_fd_sc_hd__and3_1
*I *503:X O *D sky130_fd_sc_hd__and4_1
*CAP
1 *504:C 0.000854351
2 *503:X 0.000854351
3 *504:C *498:A1 0.000419392
4 *504:C *501:B1 9.16333e-06
5 *504:C *503:D 0.000107227
6 *504:C *504:A 4.5783e-05
7 *504:C *504:B 7.06865e-05
8 *504:C *91:72 2.96728e-05
9 *504:C *96:87 1.83194e-05
10 *504:C *148:136 0.000159957
11 *504:C *206:14 8.3804e-05
12 *579:RESET_B *504:C 1.08758e-05
*RES
1 *503:X *504:C 19.02 
*END

*D_NET *80 0.00904951
*CONN
*I *509:A2 I *D sky130_fd_sc_hd__a21o_1
*I *511:A2 I *D sky130_fd_sc_hd__a21o_1
*I *507:A2 I *D sky130_fd_sc_hd__a21o_1
*I *513:A2 I *D sky130_fd_sc_hd__a21o_1
*I *517:A2 I *D sky130_fd_sc_hd__a21o_1
*I *515:A2 I *D sky130_fd_sc_hd__a21o_1
*I *506:X O *D sky130_fd_sc_hd__and4bb_2
*CAP
1 *509:A2 5.83335e-05
2 *511:A2 0.000171438
3 *507:A2 0
4 *513:A2 2.15187e-05
5 *517:A2 3.23404e-05
6 *515:A2 0.000312108
7 *506:X 0.000732582
8 *80:55 0.00070251
9 *80:20 0.000537235
10 *80:16 0.000372447
11 *80:14 0.000754374
12 *80:12 0.000856076
13 *509:A2 *595:CLK 4.89295e-05
14 *509:A2 *92:86 9.14173e-05
15 *511:A2 *505:A1 5.10587e-05
16 *511:A2 *505:A2 5.2403e-05
17 *511:A2 *507:A1 0.000124007
18 *511:A2 *507:B1 0.000101069
19 *511:A2 *511:A1 0
20 *511:A2 *666:A 1.16578e-05
21 *511:A2 *207:8 1.1392e-05
22 *513:A2 *94:12 4.77719e-05
23 *515:A2 *514:A3 4.66108e-05
24 *515:A2 *515:B1 0.000109382
25 *515:A2 *517:A1 8.50843e-05
26 *515:A2 *95:62 8.23457e-05
27 *515:A2 *154:78 0.000122797
28 *517:A2 *600:CLK 4.66108e-05
29 *80:12 *474:B 3.83041e-05
30 *80:12 *506:A_N 4.99619e-05
31 *80:12 *508:B1 2.12738e-05
32 *80:12 *545:A 1.16578e-05
33 *80:12 *595:D 8.53113e-06
34 *80:12 *614:A 0.000111285
35 *80:14 *595:D 0.000114492
36 *80:16 *595:D 0.000181575
37 *80:16 *85:14 0
38 *80:16 *85:33 0
39 *80:16 *85:111 0.000210321
40 *80:20 *585:CLK 6.87204e-05
41 *80:20 *599:D 0.000120186
42 *80:20 *85:111 0.000100874
43 *80:20 *85:117 0.000312468
44 *80:20 *96:32 4.23028e-05
45 *80:55 *507:B1 0.000158066
46 *80:55 *508:A2 1.92187e-05
47 *80:55 *508:A3 0.000188289
48 *80:55 *594:CLK 0.000123589
49 *80:55 *666:A 8.18626e-05
50 *80:55 *85:14 0.000121643
51 *80:55 *147:107 1.60986e-05
52 *581:RESET_B *80:12 9.21064e-05
53 *72:10 *515:A2 0.000106758
54 *72:34 *80:12 0.000297701
55 *72:34 *80:16 0.000209212
56 *72:34 *80:20 0.000353886
57 *73:14 *80:12 0
58 *73:33 *80:12 0.000305634
*RES
1 *506:X *80:12 17.4 
2 *80:12 *80:14 1.38 
3 *80:14 *80:16 4.695 
4 *80:16 *80:20 8.735 
5 *80:20 *515:A2 7.93 
6 *80:20 *517:A2 2.41 
7 *80:16 *513:A2 4.05 
8 *80:14 *80:55 10.07 
9 *80:55 *507:A2 1.6 
10 *80:55 *511:A2 9.725 
11 *80:12 *509:A2 5.085 
*END

*D_NET *81 0.00292511
*CONN
*I *519:C I *D sky130_fd_sc_hd__and3_1
*I *518:X O *D sky130_fd_sc_hd__and4_1
*CAP
1 *519:C 0.00122714
2 *518:X 0.00122714
3 *519:C *518:C 7.9642e-06
4 *519:C *519:B 9.77943e-05
5 *519:C *580:D 4.43871e-06
6 *519:C *594:D 0
7 *519:C *667:A 5.28255e-05
8 *519:C *85:48 0.000129715
9 *519:C *207:8 5.28255e-05
10 *519:C *209:10 0.000125259
*RES
1 *518:X *519:C 14.4727 
*END

*D_NET *82 0.00760948
*CONN
*I *522:A2 I *D sky130_fd_sc_hd__a21o_1
*I *526:A2 I *D sky130_fd_sc_hd__a21o_1
*I *524:A2 I *D sky130_fd_sc_hd__a21o_1
*I *532:A2 I *D sky130_fd_sc_hd__a21o_1
*I *530:A2 I *D sky130_fd_sc_hd__a21o_1
*I *528:A2 I *D sky130_fd_sc_hd__a21o_1
*I *521:X O *D sky130_fd_sc_hd__and4b_2
*CAP
1 *522:A2 0.000101777
2 *526:A2 0.000116991
3 *524:A2 0.000671849
4 *532:A2 2.12116e-05
5 *530:A2 0.000300969
6 *528:A2 3.55506e-05
7 *521:X 0.00014902
8 *82:66 0.000468308
9 *82:42 0.000740747
10 *82:25 0.00081981
11 *82:12 0.000670782
12 *82:8 0.000562637
13 *522:A2 *522:B1 2.97004e-06
14 *522:A2 *525:A1 4.82863e-05
15 *522:A2 *526:B1 8.26614e-05
16 *522:A2 *88:80 4.82863e-05
17 *522:A2 *157:90 0
18 *524:A2 *523:B1 0
19 *524:A2 *524:A1 4.82919e-05
20 *524:A2 *524:B1 0.000116165
21 *524:A2 *532:B1 4.82919e-05
22 *524:A2 *621:A 7.71016e-05
23 *524:A2 *156:115 0
24 *526:A2 *526:B1 0.000197264
25 *526:A2 *608:A 8.65961e-05
26 *530:A2 *529:A3 5.83121e-06
27 *530:A2 *530:A1 0.000125313
28 *530:A2 *590:D 4.82919e-05
29 *530:A2 *621:A 0.000179324
30 *530:A2 *127:12 1.61831e-05
31 *530:A2 *156:115 0.000305065
32 *530:A2 *157:10 0.000122869
33 *532:A2 *532:B1 4.82863e-05
34 *82:8 *528:B1 0
35 *82:8 *88:22 3.09233e-05
36 *82:8 *94:117 0
37 *82:8 *151:27 0
38 *82:8 *151:31 0
39 *82:8 *153:36 0
40 *82:12 *589:D 0.00012657
41 *82:12 *88:35 0.00015711
42 *82:25 *531:B1 2.53258e-05
43 *82:25 *591:D 0.000119631
44 *82:25 *88:35 8.73389e-06
45 *82:42 *156:115 7.26551e-05
46 *82:42 *157:10 7.70938e-05
47 *82:66 *526:B1 1.52184e-05
48 *82:66 *528:B1 0
49 *82:66 *589:D 6.74079e-05
50 *82:66 *88:18 0.000164679
51 *82:66 *88:22 0.000154488
52 *82:66 *91:32 6.15171e-05
53 *82:66 *153:36 0
54 *82:66 *157:90 0
55 seg3[3] *524:A2 0.000115923
56 *586:RESET_B *524:A2 5.72004e-05
57 *591:RESET_B *530:A2 8.8266e-05
*RES
1 *521:X *82:8 5.745 
2 *82:8 *82:12 5.555 
3 *82:12 *528:A2 2.215 
4 *82:12 *82:25 7.64 
5 *82:25 *530:A2 12.615 
6 *82:25 *82:42 3.635 
7 *82:42 *532:A2 2.05 
8 *82:42 *524:A2 18.275 
9 *82:8 *82:66 5.97 
10 *82:66 *526:A2 6.12 
11 *82:66 *522:A2 5.94 
*END

*D_NET *83 0.00423219
*CONN
*I *521:A_N I *D sky130_fd_sc_hd__and4b_2
*I *471:B_N I *D sky130_fd_sc_hd__and4bb_2
*I *506:B_N I *D sky130_fd_sc_hd__and4bb_2
*I *474:C I *D sky130_fd_sc_hd__nor4b_1
*I *473:A_N I *D sky130_fd_sc_hd__and4b_1
*I *603:Q O *D sky130_fd_sc_hd__dfrtp_1
*CAP
1 *521:A_N 0
2 *471:B_N 0.000222052
3 *506:B_N 0
4 *474:C 6.5259e-05
5 *473:A_N 0.000432843
6 *603:Q 5.58786e-05
7 *83:49 0.000364848
8 *83:36 0.000209584
9 *83:23 0.000132047
10 *83:6 0.000488721
11 *471:B_N *471:C 0.000365613
12 *471:B_N *616:A 0.000124895
13 *471:B_N *152:14 1.91597e-05
14 *473:A_N *473:B 0.000116165
15 *473:A_N *473:C 2.30292e-05
16 *473:A_N *603:D 6.01354e-05
17 *473:A_N *84:10 9.40604e-05
18 *473:A_N *91:149 4.82863e-05
19 *473:A_N *127:14 2.34022e-05
20 *473:A_N *127:20 2.94272e-05
21 *473:A_N *150:35 8.65905e-05
22 *474:C *474:B 0
23 *474:C *93:93 7.47145e-05
24 *474:C *127:14 0.000200615
25 *83:36 *93:93 0.000105266
26 *83:49 *616:A 6.49845e-05
27 *83:49 *93:93 0.000210247
28 *83:49 *151:31 1.44259e-05
29 *475:A2 *474:C 0.000117519
30 *476:B1 *473:A_N 3.76596e-05
31 *603:RESET_B *473:A_N 4.11729e-05
32 *603:RESET_B *474:C 1.91597e-05
33 *603:RESET_B *83:6 7.57202e-05
34 *655:A *474:C 7.66083e-05
35 *74:6 *471:B_N 7.66083e-05
36 *74:12 *471:B_N 0.000155497
*RES
1 *603:Q *83:6 2.395 
2 *83:6 *473:A_N 12.95 
3 *83:6 *83:23 2 
4 *83:23 *474:C 6.3 
5 *83:23 *83:36 1.38 
6 *83:36 *506:B_N 3.6 
7 *83:36 *83:49 5.105 
8 *83:49 *471:B_N 6.88 
9 *83:49 *521:A_N 1.6 
*END

*D_NET *84 0.00971297
*CONN
*I *608:A I *D sky130_fd_sc_hd__clkbuf_16
*I *607:A I *D sky130_fd_sc_hd__clkbuf_16
*I *606:A I *D sky130_fd_sc_hd__clkbuf_16
*I *605:A I *D sky130_fd_sc_hd__clkbuf_16
*I *604:X O *D sky130_fd_sc_hd__clkbuf_16
*CAP
1 *608:A 0.000219392
2 *607:A 0.000494241
3 *606:A 0.000322394
4 *605:A 0.000572322
5 *604:X 0
6 *84:36 0.0010077
7 *84:10 0.00114748
8 *84:6 0.00054683
9 *605:A *595:D 0.000230925
10 *605:A *618:A 4.82919e-05
11 *605:A *85:14 2.86975e-05
12 *605:A *85:111 4.21518e-05
13 *605:A *96:36 0.000542006
14 *605:A *96:54 3.63577e-05
15 *605:A *147:69 5.4167e-05
16 *605:A *147:107 0.000196249
17 *605:A *150:43 2.39856e-05
18 *605:A *150:97 2.93678e-05
19 *606:A *562:A 0.0001249
20 *606:A *93:93 6.14689e-05
21 *606:A *96:54 0.00028464
22 *606:A *147:109 8.08153e-06
23 *606:A *156:58 0.000138551
24 *607:A *493:A1 0.00015639
25 *607:A *493:A2 1.33285e-05
26 *607:A *493:B1 4.66108e-05
27 *607:A *660:A 4.99619e-05
28 *607:A *92:82 8.73389e-06
29 *607:A *148:140 4.82863e-05
30 *608:A *526:B1 6.38722e-05
31 *608:A *588:D 0.000318091
32 *608:A *615:A 0.0001249
33 *608:A *151:12 8.09157e-05
34 *84:10 *473:B 0
35 *84:10 *91:149 9.82856e-06
36 *84:10 *154:21 0.000101317
37 *84:10 *155:46 0.000560842
38 *84:36 *596:D 0.000446562
39 *84:36 *614:A 0.000284267
40 *84:36 *615:A 0.000594171
41 *84:36 *152:22 0.000203755
42 *84:36 *155:46 0.00026028
43 *473:A_N *84:10 9.40604e-05
44 *476:B1 *84:10 0
45 *476:B1 *84:36 0
46 *526:A2 *608:A 8.65961e-05
*RES
1 *604:X *84:6 3.6 
2 *84:6 *84:10 9.5 
3 *84:10 *605:A 14.83 
4 *84:10 *606:A 13.115 
5 *84:6 *84:36 13.325 
6 *84:36 *607:A 8.605 
7 *84:36 *608:A 7.225 
*END

*D_NET *85 0.00960406
*CONN
*I *599:CLK I *D sky130_fd_sc_hd__dfrtp_4
*I *600:CLK I *D sky130_fd_sc_hd__dfrtp_4
*I *585:CLK I *D sky130_fd_sc_hd__dfrtp_1
*I *595:CLK I *D sky130_fd_sc_hd__dfstp_2
*I *581:CLK I *D sky130_fd_sc_hd__dfrtp_1
*I *583:CLK I *D sky130_fd_sc_hd__dfrtp_1
*I *584:CLK I *D sky130_fd_sc_hd__dfrtp_1
*I *582:CLK I *D sky130_fd_sc_hd__dfrtp_1
*I *580:CLK I *D sky130_fd_sc_hd__dfrtp_1
*I *594:CLK I *D sky130_fd_sc_hd__dfrtp_1
*I *605:X O *D sky130_fd_sc_hd__clkbuf_16
*CAP
1 *599:CLK 0
2 *600:CLK 3.53583e-05
3 *585:CLK 0.000562753
4 *595:CLK 5.71087e-05
5 *581:CLK 5.82221e-05
6 *583:CLK 0
7 *584:CLK 0.000450205
8 *582:CLK 3.27348e-05
9 *580:CLK 7.75055e-05
10 *594:CLK 7.08823e-05
11 *605:X 0
12 *85:117 0.000788088
13 *85:111 0.000488432
14 *85:61 0.000567572
15 *85:48 0.000488367
16 *85:37 0.000704167
17 *85:35 0.000494878
18 *85:33 0.000405444
19 *85:14 0.000457332
20 *85:4 0.000484831
21 *580:CLK *580:D 5.83121e-06
22 *581:CLK *581:D 1.73877e-05
23 *581:CLK *666:A 0.000116165
24 *581:CLK *93:41 0.00015997
25 *584:CLK *547:A 4.49534e-05
26 *585:CLK *516:A3 2.12738e-05
27 *585:CLK *517:B1 1.82623e-05
28 *585:CLK *585:D 4.28041e-05
29 *585:CLK *96:32 3.33486e-06
30 *594:CLK *508:A3 0
31 *595:CLK *508:A3 0.000101972
32 *595:CLK *508:B1 0.000132212
33 *595:CLK *92:86 9.97536e-06
34 *85:14 *594:D 6.63219e-06
35 *85:14 *147:107 5.76026e-05
36 *85:14 *150:43 0
37 *85:33 *508:A3 7.89841e-05
38 *85:33 *508:B1 6.23541e-06
39 *85:33 *509:B1 1.42807e-05
40 *85:33 *154:47 1.24708e-05
41 *85:35 *508:A3 4.66108e-05
42 *85:35 *508:B1 6.90044e-05
43 *85:35 *519:B 8.34281e-06
44 *85:35 *626:A 0.000180603
45 *85:35 *154:47 0.000110804
46 *85:35 *208:16 0.000243959
47 *85:37 *505:B1 8.88715e-05
48 *85:37 *519:B 0.000139111
49 *85:37 *580:D 1.91597e-05
50 *85:37 *626:A 1.91597e-05
51 *85:48 *518:A 0
52 *85:48 *580:D 0.00011852
53 *85:48 *209:10 0
54 *85:111 *518:C 0
55 *85:111 *518:D 0
56 *85:117 *517:B1 2.74056e-05
57 *85:117 *518:D 0
58 seg2[3] *85:48 6.16226e-06
59 *509:A2 *595:CLK 4.89295e-05
60 *517:A2 *600:CLK 4.66108e-05
61 *519:C *85:48 0.000129715
62 *580:RESET_B *85:35 2.05056e-05
63 *580:RESET_B *85:37 8.59643e-05
64 *585:RESET_B *585:CLK 7.78022e-05
65 *605:A *85:14 2.86975e-05
66 *605:A *85:111 4.21518e-05
67 *72:10 *600:CLK 3.41304e-05
68 *80:16 *85:14 0
69 *80:16 *85:33 0
70 *80:16 *85:111 0.000210321
71 *80:20 *585:CLK 6.87204e-05
72 *80:20 *85:111 0.000100874
73 *80:20 *85:117 0.000312468
74 *80:55 *594:CLK 0.000123589
75 *80:55 *85:14 0.000121643
*RES
1 *605:X *85:4 1.6 
2 *85:4 *85:14 7.48 
3 *85:14 *594:CLK 3.1 
4 *85:14 *85:33 6.79 
5 *85:33 *85:35 4.59 
6 *85:35 *85:37 5.97 
7 *85:37 *580:CLK 2.74 
8 *85:37 *85:48 8.6075 
9 *85:48 *582:CLK 4.2825 
10 *85:48 *85:61 2.0175 
11 *85:61 *584:CLK 10.545 
12 *85:61 *583:CLK 3.6 
13 *85:35 *581:CLK 7.49 
14 *85:33 *595:CLK 3.775 
15 *85:4 *85:111 8.045 
16 *85:111 *85:117 4.485 
17 *85:117 *585:CLK 10.695 
18 *85:117 *600:CLK 4.41 
19 *85:111 *599:CLK 3.6 
*END

*D_NET *86 0.00887589
*CONN
*I *569:CLK I *D sky130_fd_sc_hd__dfrtp_1
*I *592:CLK I *D sky130_fd_sc_hd__dfrtp_1
*I *568:CLK I *D sky130_fd_sc_hd__dfrtp_1
*I *609:A I *D sky130_fd_sc_hd__clkbuf_4
*I *571:CLK I *D sky130_fd_sc_hd__dfrtp_1
*I *603:CLK I *D sky130_fd_sc_hd__dfrtp_1
*I *598:CLK I *D sky130_fd_sc_hd__dfrtp_4
*I *573:CLK I *D sky130_fd_sc_hd__dfrtp_1
*I *570:CLK I *D sky130_fd_sc_hd__dfrtp_1
*I *572:CLK I *D sky130_fd_sc_hd__dfrtp_1
*I *606:X O *D sky130_fd_sc_hd__clkbuf_16
*CAP
1 *569:CLK 6.05382e-05
2 *592:CLK 0
3 *568:CLK 7.24467e-05
4 *609:A 0
5 *571:CLK 2.08101e-05
6 *603:CLK 0.000247606
7 *598:CLK 0.00010179
8 *573:CLK 4.23205e-05
9 *570:CLK 0.00011962
10 *572:CLK 0
11 *606:X 0.000147337
12 *86:116 0.00013962
13 *86:99 0.000236931
14 *86:65 0.000599622
15 *86:59 0.000776597
16 *86:39 0.000295844
17 *86:26 0.000217874
18 *86:20 0.000627787
19 *86:16 0.000205303
20 *86:10 0.000399787
21 *568:CLK *490:A 2.75229e-05
22 *568:CLK *490:B 5.64829e-05
23 *568:CLK *96:54 0.000131567
24 *568:CLK *156:52 8.65961e-05
25 *570:CLK *483:A3 4.82919e-05
26 *570:CLK *483:B1 0.00012657
27 *570:CLK *570:D 0.000229541
28 *570:CLK *680:A 2.54522e-05
29 *570:CLK *148:49 2.30292e-05
30 *573:CLK *483:B1 3.66286e-05
31 *573:CLK *148:49 2.05056e-05
32 *598:CLK *641:A 1.37328e-05
33 *598:CLK *94:10 0.000241249
34 *603:CLK *473:C 9.30787e-05
35 *603:CLK *598:D 0.000256925
36 *603:CLK *91:20 0.000163992
37 *603:CLK *155:21 0.00013521
38 *603:CLK *155:46 0.000239309
39 *86:10 *94:100 0.00015639
40 *86:16 *482:A2 9.4087e-05
41 *86:16 *634:A 8.53113e-06
42 *86:16 *147:109 0
43 *86:16 *197:10 4.66108e-05
44 *86:16 *198:12 5.05521e-05
45 *86:20 *147:109 0.000107634
46 *86:20 *197:10 9.37731e-05
47 *86:26 *570:D 0.000139245
48 *86:26 *96:119 2.75145e-05
49 *86:26 *147:109 0.000229203
50 *86:26 *197:10 8.82978e-05
51 *86:39 *483:B1 0.000181376
52 *86:39 *570:D 3.90266e-05
53 *86:39 *572:D 7.73272e-05
54 *86:39 *96:119 2.59926e-05
55 *86:59 *571:D 0.000207832
56 *86:59 *95:94 1.36454e-05
57 *86:65 *564:A 9.54469e-05
58 *86:65 *598:D 2.24336e-05
59 *86:65 *95:94 2.66586e-05
60 *86:65 *155:21 0.000270574
61 *86:99 *146:12 1.52945e-05
62 *86:99 *147:109 0
63 *86:116 *592:D 4.70343e-05
64 *86:116 *146:12 7.21296e-06
65 *86:116 *147:109 0
66 *86:116 *156:52 8.78813e-05
67 *490:C *86:16 0.000121094
68 *490:C *86:99 4.94404e-05
69 *599:RESET_B *86:65 0.000278261
*RES
1 *606:X *86:10 6.135 
2 *86:10 *86:16 6.14 
3 *86:16 *86:20 3.38 
4 *86:20 *86:26 5.105 
5 *86:26 *572:CLK 1.6 
6 *86:26 *86:39 7.285 
7 *86:39 *570:CLK 4.81 
8 *86:39 *573:CLK 2.395 
9 *86:20 *86:59 8.33 
10 *86:59 *86:65 8.36 
11 *86:65 *598:CLK 6.135 
12 *86:65 *603:CLK 11.355 
13 *86:59 *571:CLK 1.96 
14 *86:16 *609:A 1.6 
15 *86:10 *86:99 1.635 
16 *86:99 *568:CLK 5.895 
17 *86:99 *86:116 4.145 
18 *86:116 *592:CLK 1.6 
19 *86:116 *569:CLK 2.395 
*END

*D_NET *87 0.00599935
*CONN
*I *575:CLK I *D sky130_fd_sc_hd__dfrtp_1
*I *574:CLK I *D sky130_fd_sc_hd__dfrtp_1
*I *576:CLK I *D sky130_fd_sc_hd__dfrtp_1
*I *578:CLK I *D sky130_fd_sc_hd__dfrtp_1
*I *577:CLK I *D sky130_fd_sc_hd__dfrtp_1
*I *593:CLK I *D sky130_fd_sc_hd__dfrtp_1
*I *579:CLK I *D sky130_fd_sc_hd__dfrtp_1
*I *610:A I *D sky130_fd_sc_hd__clkinv_2
*I *607:X O *D sky130_fd_sc_hd__clkbuf_16
*CAP
1 *575:CLK 7.62982e-05
2 *574:CLK 0
3 *576:CLK 3.37454e-05
4 *578:CLK 0.000113792
5 *577:CLK 0.000104678
6 *593:CLK 9.05055e-05
7 *579:CLK 2.21663e-05
8 *610:A 0
9 *607:X 0
10 *87:49 0.000546703
11 *87:47 0.000799946
12 *87:41 0.00104927
13 *87:37 0.0008173
14 *87:12 0.000136942
15 *87:8 0.000336886
16 *87:6 0.000261303
17 *577:CLK *577:D 0
18 *577:CLK *663:A 6.47516e-05
19 *579:CLK *503:D 0.000125262
20 *579:CLK *91:72 7.18832e-05
21 *593:CLK *628:A 0.000198618
22 *593:CLK *93:33 0.000247119
23 *593:CLK *155:63 2.69827e-05
24 *593:CLK *155:71 7.82329e-05
25 *87:8 *664:A 0
26 *87:8 *91:110 0.000116662
27 *87:12 *636:A 8.53113e-06
28 *87:12 *664:A 0
29 *87:12 *91:84 2.42236e-05
30 *87:12 *91:110 7.09999e-05
31 *87:37 *492:A1 1.15688e-05
32 *87:37 *91:110 4.39001e-05
33 *87:37 *109:10 0.000116853
34 *87:47 *683:A 6.28765e-05
35 *87:49 *498:A1 0
36 *87:49 *541:A 5.43599e-05
37 *87:49 *664:A 0
38 seg1[0] *87:47 5.83121e-06
39 seg1[2] *87:49 7.96104e-06
40 seg1[4] *578:CLK 3.64998e-06
41 *492:A2 *87:37 0.000137571
42 *574:RESET_B *575:CLK 5.05437e-05
43 *574:RESET_B *87:41 1.61387e-05
44 *576:RESET_B *87:47 0
45 *576:RESET_B *87:49 0
46 *577:RESET_B *577:CLK 1.82476e-05
47 *577:RESET_B *87:49 4.7043e-05
48 *578:RESET_B *87:12 0
*RES
1 *607:X *87:6 3.6 
2 *87:6 *87:8 2.655 
3 *87:8 *87:12 4.145 
4 *87:12 *610:A 1.6 
5 *87:12 *579:CLK 2.74 
6 *87:8 *593:CLK 7.5 
7 *87:6 *87:37 4.91 
8 *87:37 *87:41 6.93 
9 *87:41 *87:47 9.05 
10 *87:47 *87:49 5.97 
11 *87:49 *577:CLK 5.745 
12 *87:49 *578:CLK 5.085 
13 *87:47 *576:CLK 4.05 
14 *87:41 *574:CLK 1.6 
15 *87:37 *575:CLK 3.01 
*END

*D_NET *88 0.00935162
*CONN
*I *587:CLK I *D sky130_fd_sc_hd__dfrtp_1
*I *586:CLK I *D sky130_fd_sc_hd__dfrtp_1
*I *596:CLK I *D sky130_fd_sc_hd__dfrtp_4
*I *588:CLK I *D sky130_fd_sc_hd__dfrtp_1
*I *597:CLK I *D sky130_fd_sc_hd__dfrtp_4
*I *611:A I *D sky130_fd_sc_hd__clkbuf_4
*I *589:CLK I *D sky130_fd_sc_hd__dfrtp_1
*I *601:CLK I *D sky130_fd_sc_hd__dfrtp_1
*I *591:CLK I *D sky130_fd_sc_hd__dfrtp_1
*I *590:CLK I *D sky130_fd_sc_hd__dfrtp_1
*I *602:CLK I *D sky130_fd_sc_hd__dfrtp_1
*I *608:X O *D sky130_fd_sc_hd__clkbuf_16
*CAP
1 *587:CLK 0
2 *586:CLK 0.000394627
3 *596:CLK 1.90984e-05
4 *588:CLK 0.000140263
5 *597:CLK 1.43332e-05
6 *611:A 0
7 *589:CLK 0
8 *601:CLK 0.000532403
9 *591:CLK 2.25824e-05
10 *590:CLK 0.000170806
11 *602:CLK 0.00013355
12 *608:X 0.00014368
13 *88:97 0.000530738
14 *88:93 0.000893419
15 *88:80 0.000294511
16 *88:78 0.00020797
17 *88:55 0.000532403
18 *88:35 0.000451136
19 *88:22 0.000470503
20 *88:18 0.000119801
21 *88:14 0.000249651
22 *88:8 0.000407943
23 *586:CLK *520:A3 3.1562e-06
24 *588:CLK *538:A 0
25 *588:CLK *561:A 8.8266e-05
26 *588:CLK *588:D 4.7043e-05
27 *588:CLK *596:D 2.05056e-05
28 *588:CLK *597:D 0
29 *590:CLK *527:A3 2.92496e-05
30 *590:CLK *529:A2 3.67267e-05
31 *590:CLK *529:A3 7.07801e-05
32 *590:CLK *531:B1 0
33 *590:CLK *532:A1 0
34 *590:CLK *94:117 0
35 *590:CLK *148:117 5.16348e-05
36 *590:CLK *153:36 3.23391e-05
37 *591:CLK *527:A3 4.54719e-05
38 *591:CLK *532:A1 0
39 *591:CLK *591:D 0
40 *596:CLK *561:A 4.00541e-06
41 *597:CLK *92:61 8.65905e-05
42 *597:CLK *93:87 5.30673e-05
43 *601:CLK *596:D 5.83121e-06
44 *601:CLK *89:8 6.33103e-05
45 *602:CLK *91:32 0.000193806
46 *88:14 *151:69 0.000235568
47 *88:14 *151:73 9.70869e-05
48 *88:14 *157:90 0.000208477
49 *88:18 *91:32 8.87475e-05
50 *88:22 *91:32 8.71079e-05
51 *88:22 *151:27 7.21296e-06
52 *88:35 *527:A3 4.66108e-05
53 *88:35 *94:117 8.49205e-05
54 *88:78 *587:D 2.97004e-06
55 *88:78 *151:73 3.90069e-05
56 *88:78 *151:79 0
57 *88:78 *157:90 0.000129742
58 *88:80 *522:B1 4.82863e-05
59 *88:80 *525:A1 0.000184793
60 *88:80 *586:D 2.49909e-05
61 *88:80 *92:61 0.000423637
62 *88:80 *93:87 2.05056e-05
63 *88:93 *525:B1 0
64 *88:93 *597:D 0
65 *88:93 *673:A 0.000103966
66 *88:97 *596:D 4.7101e-05
67 *522:A2 *88:80 4.82863e-05
68 *596:RESET_B *586:CLK 0.000228845
69 *601:D *601:CLK 6.33103e-05
70 *73:33 *590:CLK 5.33085e-05
71 *82:8 *88:22 3.09233e-05
72 *82:12 *88:35 0.00015711
73 *82:25 *88:35 8.73389e-06
74 *82:66 *88:18 0.000164679
75 *82:66 *88:22 0.000154488
*RES
1 *608:X *88:8 5.085 
2 *88:8 *88:14 7.085 
3 *88:14 *88:18 3.89 
4 *88:18 *88:22 4.145 
5 *88:22 *602:CLK 4.12 
6 *88:22 *88:35 6.86 
7 *88:35 *590:CLK 7.275 
8 *88:35 *591:CLK 4.215 
9 *88:18 *88:55 2 
10 *88:55 *601:CLK 9.31 
11 *88:55 *589:CLK 1.6 
12 *88:14 *611:A 1.6 
13 *88:8 *88:78 3.635 
14 *88:78 *88:80 4.935 
15 *88:80 *597:CLK 2.395 
16 *88:80 *88:93 6.655 
17 *88:93 *88:97 4.26 
18 *88:97 *588:CLK 8.375 
19 *88:97 *596:CLK 1.96 
20 *88:93 *586:CLK 6.46 
21 *88:78 *587:CLK 1.6 
*END

*D_NET *89 0.00189591
*CONN
*I *617:A I *D sky130_fd_sc_hd__clkbuf_2
*I *616:A I *D sky130_fd_sc_hd__buf_2
*I *601:Q O *D sky130_fd_sc_hd__dfrtp_1
*CAP
1 *617:A 8.03229e-05
2 *616:A 0.00015026
3 *601:Q 0.000100849
4 *89:8 0.000331431
5 *616:A *471:C 4.82863e-05
6 *616:A *521:B 0.000158072
7 *616:A *565:A 0.000134509
8 *616:A *93:93 0.00010322
9 *616:A *151:27 5.63429e-05
10 *616:A *151:31 3.05373e-05
11 *617:A *565:A 0.000206824
12 *617:A *93:93 7.53115e-05
13 *617:A *151:23 2.75145e-05
14 *471:B_N *616:A 0.000124895
15 *601:CLK *89:8 6.33103e-05
16 *601:RESET_B *616:A 7.23602e-05
17 *601:RESET_B *617:A 6.68849e-05
18 *83:49 *616:A 6.49845e-05
*RES
1 *601:Q *89:8 4.74 
2 *89:8 *616:A 8.85 
3 *89:8 *617:A 6.45 
*END

*D_NET *90 0.00433174
*CONN
*I *615:A I *D sky130_fd_sc_hd__clkbuf_2
*I *614:A I *D sky130_fd_sc_hd__buf_2
*I *602:Q O *D sky130_fd_sc_hd__dfrtp_1
*CAP
1 *615:A 0.000252675
2 *614:A 0.000303155
3 *602:Q 0.000224346
4 *90:8 0.000780176
5 *614:A *474:B 0.000305296
6 *614:A *506:A_N 4.82863e-05
7 *615:A *472:A1 0.000117832
8 *90:8 *91:32 6.3124e-06
9 *90:8 *152:22 4.71234e-05
10 *476:B1 *614:A 0
11 *476:B1 *615:A 0
12 *602:RESET_B *90:8 1.56428e-05
13 *608:A *615:A 0.0001249
14 *73:33 *614:A 0.000686639
15 *74:96 *614:A 7.06865e-05
16 *74:96 *615:A 0.000358944
17 *80:12 *614:A 0.000111285
18 *84:36 *614:A 0.000284267
19 *84:36 *615:A 0.000594171
*RES
1 *602:Q *90:8 6.12 
2 *90:8 *614:A 13.695 
3 *90:8 *615:A 11.73 
*END

*D_NET *91 0.0202096
*CONN
*I *477:A3 I *D sky130_fd_sc_hd__a31o_1
*I *478:A1 I *D sky130_fd_sc_hd__a21o_1
*I *639:A I *D sky130_fd_sc_hd__dlygate4sd3_1
*I *492:A1 I *D sky130_fd_sc_hd__a21o_1
*I *491:A3 I *D sky130_fd_sc_hd__a31o_1
*I *507:A1 I *D sky130_fd_sc_hd__a21o_1
*I *505:A3 I *D sky130_fd_sc_hd__a31o_1
*I *520:A3 I *D sky130_fd_sc_hd__a31o_1
*I *522:A1 I *D sky130_fd_sc_hd__a21o_1
*I *595:Q O *D sky130_fd_sc_hd__dfstp_2
*CAP
1 *477:A3 0
2 *478:A1 0.000119583
3 *639:A 0
4 *492:A1 0.000223283
5 *491:A3 8.81164e-05
6 *507:A1 0.000253726
7 *505:A3 8.62737e-05
8 *520:A3 0.000527624
9 *522:A1 8.88903e-05
10 *595:Q 1.58897e-05
11 *91:149 0.0017942
12 *91:110 0.000527071
13 *91:84 0.000935095
14 *91:72 0.00165193
15 *91:64 0.000960275
16 *91:32 0.00154408
17 *91:20 0.00149482
18 *91:6 0.00213865
19 *478:A1 *621:A 0.000192771
20 *478:A1 *677:A 0.000320834
21 *491:A3 *491:B1 5.05437e-05
22 *492:A1 *491:A1 9.3062e-06
23 *492:A1 *574:D 8.40269e-05
24 *505:A3 *469:A 0
25 *505:A3 *505:A1 4.99619e-05
26 *505:A3 *666:A 2.8185e-05
27 *507:A1 *505:A1 0.000344691
28 *507:A1 *666:A 1.19928e-05
29 *507:A1 *93:41 0.000179447
30 *520:A3 *520:A2 0.000143266
31 *520:A3 *525:A2 0
32 *520:A3 *525:B1 7.55391e-05
33 *520:A3 *526:B1 0.000179015
34 *520:A3 *552:A 6.95335e-05
35 *520:A3 *560:A 9.82856e-06
36 *520:A3 *586:D 5.4003e-05
37 *520:A3 *587:D 0.000186092
38 *520:A3 *151:79 3.94692e-05
39 *520:A3 *157:90 6.08551e-05
40 *522:A1 *525:A1 0.000120655
41 *91:6 *473:C 1.08758e-05
42 *91:6 *92:126 1.91597e-05
43 *91:6 *150:35 2.75229e-05
44 *91:20 *598:D 1.67513e-05
45 *91:20 *646:A 0
46 *91:20 *92:82 0
47 *91:20 *155:46 0.000683379
48 *91:32 *525:A2 0
49 *91:32 *526:B1 0.000137571
50 *91:32 *565:A 1.07797e-05
51 *91:32 *151:27 0.000338226
52 *91:32 *152:22 0.000118081
53 *91:64 *543:A 8.8266e-05
54 *91:64 *646:A 0
55 *91:64 *155:46 7.49327e-05
56 *91:72 *503:D 5.55151e-05
57 *91:72 *543:A 0.0001249
58 *91:72 *636:A 2.49909e-05
59 *91:72 *206:14 6.11797e-05
60 *91:84 *498:A1 3.18137e-05
61 *91:84 *636:A 0.000414009
62 *91:84 *662:A 0.000352161
63 *91:84 *665:A 0
64 *91:84 *93:41 0
65 *91:84 *152:32 0
66 *91:110 *491:A1 4.77386e-05
67 *91:110 *495:A1 3.32497e-05
68 *91:110 *111:12 6.28687e-05
69 *91:110 *152:32 0
70 *91:149 *473:B 3.59531e-06
71 *91:149 *473:C 0.00014719
72 *91:149 *147:182 0.000177127
73 *91:149 *150:35 6.1357e-05
74 seg0[1] *91:149 0.000249476
75 *473:A_N *91:149 4.82863e-05
76 *492:A2 *492:A1 0.000316799
77 *504:C *91:72 2.96728e-05
78 *511:A2 *507:A1 0.000124007
79 *579:CLK *91:72 7.18832e-05
80 *579:RESET_B *91:72 0.000192715
81 *586:CLK *520:A3 3.1562e-06
82 *596:RESET_B *520:A3 6.01238e-05
83 *601:RESET_B *91:32 4.82863e-05
84 *602:CLK *91:32 0.000193806
85 *602:RESET_B *91:20 5.16348e-05
86 *602:RESET_B *91:64 0.000116853
87 *603:CLK *91:20 0.000163992
88 *73:14 *91:84 3.89528e-05
89 *74:67 *491:A3 0.00019637
90 *82:66 *91:32 6.15171e-05
91 *84:10 *91:149 9.82856e-06
92 *87:8 *91:110 0.000116662
93 *87:12 *91:84 2.42236e-05
94 *87:12 *91:110 7.09999e-05
95 *87:37 *492:A1 1.15688e-05
96 *87:37 *91:110 4.39001e-05
97 *88:18 *91:32 8.87475e-05
98 *88:22 *91:32 8.71079e-05
99 *90:8 *91:32 6.3124e-06
*RES
1 *595:Q *91:6 2.05 
2 *91:6 *91:20 12.245 
3 *91:20 *91:32 19.405 
4 *91:32 *522:A1 4.74 
5 *91:32 *520:A3 17.995 
6 *91:20 *91:64 4.865 
7 *91:64 *91:72 13.43 
8 *91:72 *91:84 17.835 
9 *91:84 *505:A3 3.1 
10 *91:84 *507:A1 11.465 
11 *91:72 *91:110 5.205 
12 *91:110 *491:A3 5.79 
13 *91:110 *492:A1 8.325 
14 *91:64 *639:A 1.6 
15 *91:6 *91:149 7.5523 
16 *91:149 *478:A1 7.785 
17 *91:149 *477:A3 3.6 
*END

*D_NET *92 0.0164589
*CONN
*I *494:A1 I *D sky130_fd_sc_hd__a21o_1
*I *480:A1 I *D sky130_fd_sc_hd__a21o_1
*I *479:A3 I *D sky130_fd_sc_hd__a31o_1
*I *509:A1 I *D sky130_fd_sc_hd__a21o_1
*I *508:A3 I *D sky130_fd_sc_hd__a31o_1
*I *493:A3 I *D sky130_fd_sc_hd__a31o_1
*I *642:A I *D sky130_fd_sc_hd__dlygate4sd3_1
*I *523:A3 I *D sky130_fd_sc_hd__a31o_1
*I *524:A1 I *D sky130_fd_sc_hd__a21o_1
*I *596:Q O *D sky130_fd_sc_hd__dfrtp_4
*CAP
1 *494:A1 0.000297152
2 *480:A1 0
3 *479:A3 0.000319049
4 *509:A1 0
5 *508:A3 0.000287138
6 *493:A3 0.000106132
7 *642:A 7.3261e-05
8 *523:A3 0
9 *524:A1 0.000175425
10 *596:Q 1.54507e-06
11 *92:126 0.00123089
12 *92:86 0.00072128
13 *92:82 0.00194945
14 *92:65 0.000778548
15 *92:61 0.00145967
16 *92:20 0.000428716
17 *92:12 0.000458339
18 *92:8 0.0012269
19 *479:A3 *480:A2 1.91597e-05
20 *479:A3 *480:B1 0.000215818
21 *479:A3 *96:54 5.05167e-05
22 *479:A3 *147:182 6.07575e-06
23 *493:A3 *493:A1 1.19928e-05
24 *493:A3 *493:A2 2.49909e-05
25 *494:A1 *494:B1 6.41861e-05
26 *494:A1 *110:12 3.64998e-06
27 *494:A1 *202:8 0.000160115
28 *508:A3 *508:A2 2.49909e-05
29 *508:A3 *508:B1 0.00010364
30 *508:A3 *154:47 0.000101273
31 *508:A3 *208:16 4.66108e-05
32 *524:A1 *523:A1 1.33293e-05
33 *524:A1 *523:A2 4.88721e-05
34 *524:A1 *523:B1 4.82863e-05
35 *524:A1 *587:D 0.000200615
36 *524:A1 *121:16 0
37 *642:A *552:A 5.72091e-05
38 *92:8 *522:B1 2.10433e-05
39 *92:12 *522:B1 3.39944e-05
40 *92:12 *525:B1 0
41 *92:12 *526:B1 5.84618e-05
42 *92:12 *552:A 2.03775e-05
43 *92:12 *157:90 5.08304e-06
44 *92:20 *520:A2 8.40213e-05
45 *92:20 *522:B1 9.41957e-05
46 *92:20 *523:A2 0.000456198
47 *92:20 *560:A 0.000122337
48 *92:20 *587:D 0.000118166
49 *92:20 *649:A 0.000123225
50 *92:20 *121:16 5.05437e-05
51 *92:61 *493:B1 8.5734e-05
52 *92:61 *504:A 4.85536e-05
53 *92:61 *522:B1 0.000127705
54 *92:61 *526:B1 0
55 *92:61 *673:A 4.99619e-05
56 *92:61 *93:8 5.35969e-06
57 *92:61 *93:87 0.000158177
58 *92:61 *110:12 5.98342e-05
59 *92:61 *155:113 0
60 *92:65 *493:B1 4.95523e-05
61 *92:65 *504:A 0.000176273
62 *92:82 *493:A2 0.00048833
63 *92:82 *598:D 0
64 *92:82 *646:A 0.000601029
65 *92:82 *93:12 6.21553e-05
66 *92:82 *96:87 0
67 *92:82 *150:35 0.000100162
68 *92:82 *154:29 0
69 *92:126 *473:C 0.000272978
70 *92:126 *480:A2 4.82863e-05
71 *92:126 *147:182 0.00013566
72 *92:126 *150:21 0.00013551
73 *92:126 *150:35 0.000115407
74 *475:B1 *92:126 0.00012657
75 *476:B1 *92:126 2.63406e-05
76 *509:A2 *92:86 9.14173e-05
77 *524:A2 *524:A1 4.82919e-05
78 *588:RESET_B *642:A 0
79 *588:RESET_B *92:12 0
80 *594:CLK *508:A3 0
81 *595:CLK *508:A3 0.000101972
82 *595:CLK *92:86 9.97536e-06
83 *595:SET_B *92:82 0.000164672
84 *596:RESET_B *92:12 9.30787e-05
85 *597:CLK *92:61 8.65905e-05
86 *604:A *92:65 8.17606e-05
87 *604:A *92:82 0.000217184
88 *607:A *92:82 8.73389e-06
89 *73:33 *479:A3 2.25119e-05
90 *80:55 *508:A3 0.000188289
91 *85:33 *508:A3 7.89841e-05
92 *85:35 *508:A3 4.66108e-05
93 *88:80 *92:61 0.000423637
94 *91:6 *92:126 1.91597e-05
95 *91:20 *92:82 0
*RES
1 *596:Q *92:8 3.8325 
2 *92:8 *92:12 3.2325 
3 *92:12 *92:20 9.815 
4 *92:20 *524:A1 5.425 
5 *92:20 *523:A3 1.6 
6 *92:12 *642:A 5.235 
7 *92:8 *92:61 20.7775 
8 *92:61 *92:65 4.145 
9 *92:65 *493:A3 3.01 
10 *92:65 *92:82 19.525 
11 *92:82 *92:86 4.95 
12 *92:86 *508:A3 11.93 
13 *92:86 *509:A1 1.6 
14 *92:82 *92:126 14.4 
15 *92:126 *479:A3 9.89 
16 *92:126 *480:A1 1.6 
17 *92:61 *494:A1 7.62 
*END

*D_NET *93 0.0163492
*CONN
*I *525:A3 I *D sky130_fd_sc_hd__a31o_1
*I *526:A1 I *D sky130_fd_sc_hd__a21o_1
*I *482:A1 I *D sky130_fd_sc_hd__a21o_1
*I *481:A3 I *D sky130_fd_sc_hd__a31o_1
*I *495:A3 I *D sky130_fd_sc_hd__a31o_1
*I *496:A1 I *D sky130_fd_sc_hd__a21o_1
*I *510:A3 I *D sky130_fd_sc_hd__a31o_1
*I *511:A1 I *D sky130_fd_sc_hd__a21o_1
*I *646:A I *D sky130_fd_sc_hd__dlygate4sd3_1
*I *597:Q O *D sky130_fd_sc_hd__dfrtp_4
*CAP
1 *525:A3 0
2 *526:A1 0
3 *482:A1 0
4 *481:A3 0.00046285
5 *495:A3 0
6 *496:A1 7.32884e-05
7 *510:A3 0
8 *511:A1 0.00022254
9 *646:A 0.000454129
10 *597:Q 6.26927e-05
11 *93:93 0.00153581
12 *93:91 0.00117066
13 *93:87 0.000760652
14 *93:41 0.00098489
15 *93:33 0.00180067
16 *93:12 0.00156553
17 *93:8 0.000872004
18 *481:A3 *481:A1 0.000164576
19 *481:A3 *481:B1 0
20 *481:A3 *482:B1 0.000158982
21 *481:A3 *534:A 0.000148427
22 *481:A3 *640:A 0
23 *481:A3 *147:125 4.99619e-05
24 *496:A1 *496:B1 9.81565e-05
25 *496:A1 *628:A 0
26 *496:A1 *661:A 8.57024e-05
27 *511:A1 *505:A1 0
28 *511:A1 *505:A2 0
29 *511:A1 *511:B1 5.03838e-05
30 *511:A1 *594:D 6.55011e-05
31 *511:A1 *667:A 0.000115464
32 *511:A1 *207:8 8.57313e-05
33 *511:A1 *209:10 2.68721e-05
34 *646:A *598:D 4.99619e-05
35 *646:A *155:57 0
36 *646:A *155:100 0
37 *93:12 *493:A2 1.26626e-05
38 *93:12 *493:B1 6.28843e-05
39 *93:12 *155:100 0
40 *93:12 *155:113 0
41 *93:33 *496:B1 4.01731e-05
42 *93:33 *593:D 1.33205e-05
43 *93:33 *628:A 6.45093e-05
44 *93:33 *155:63 4.78284e-05
45 *93:41 *469:A 0
46 *93:41 *491:A2 2.14129e-05
47 *93:41 *505:A1 7.89032e-05
48 *93:41 *510:A1 2.30292e-05
49 *93:41 *510:A2 0.000176532
50 *93:41 *510:B1 0.000200615
51 *93:41 *666:A 6.73424e-05
52 *93:41 *668:A 1.12578e-05
53 *93:41 *94:37 0
54 *93:41 *147:69 0.000187281
55 *93:41 *152:32 0.000311389
56 *93:41 *154:53 7.89119e-05
57 *93:87 *525:A1 1.85674e-05
58 *93:91 *525:A2 0.000161637
59 *93:93 *473:B 0
60 *93:93 *475:A1 7.23602e-05
61 *93:93 *525:A2 0.000139245
62 *93:93 *534:A 0
63 *93:93 *565:A 2.54606e-05
64 *93:93 *127:44 8.78735e-05
65 *93:93 *127:57 0.000117564
66 *93:93 *147:109 0
67 *93:93 *147:182 0
68 *93:93 *151:12 0.00013521
69 *93:93 *156:58 0
70 seg0[3] *481:A3 5.33085e-05
71 *474:C *93:93 7.47145e-05
72 *475:A2 *93:93 9.5224e-05
73 *475:B1 *93:93 0
74 *476:B1 *93:93 0
75 *507:A1 *93:41 0.000179447
76 *511:A2 *511:A1 0
77 *581:CLK *93:41 0.00015997
78 *593:CLK *93:33 0.000247119
79 *593:RESET_B *646:A 0
80 *593:RESET_B *93:12 0
81 *597:CLK *93:87 5.30673e-05
82 *598:RESET_B *93:93 0
83 *601:RESET_B *93:93 0.000139245
84 *602:D *93:93 0.000116559
85 *604:A *93:12 1.1701e-05
86 *606:A *93:93 6.14689e-05
87 *616:A *93:93 0.00010322
88 *617:A *93:93 7.53115e-05
89 *73:14 *93:41 9.54399e-05
90 *74:12 *646:A 0.00027042
91 *74:33 *93:41 0.000113964
92 *74:52 *93:41 0.000102654
93 *74:67 *93:41 1.22676e-05
94 *83:36 *93:93 0.000105266
95 *83:49 *93:93 0.000210247
96 *88:80 *93:87 2.05056e-05
97 *91:20 *646:A 0
98 *91:64 *646:A 0
99 *91:84 *93:41 0
100 *92:61 *93:8 5.35969e-06
101 *92:61 *93:87 0.000158177
102 *92:82 *646:A 0.000601029
103 *92:82 *93:12 6.21553e-05
*RES
1 *597:Q *93:8 2.41 
2 *93:8 *93:12 4.91 
3 *93:12 *646:A 13.56 
4 *93:12 *93:33 13.865 
5 *93:33 *93:41 23.29 
6 *93:41 *511:A1 10.145 
7 *93:41 *510:A3 1.6 
8 *93:33 *496:A1 3.445 
9 *93:33 *495:A3 1.6 
10 *93:8 *93:87 9.21 
11 *93:87 *93:91 3.89 
12 *93:91 *93:93 22.8 
13 *93:93 *481:A3 12.855 
14 *93:93 *482:A1 3.6 
15 *93:91 *526:A1 3.6 
16 *93:87 *525:A3 1.6 
*END

*D_NET *94 0.0163737
*CONN
*I *527:A3 I *D sky130_fd_sc_hd__a31o_1
*I *528:A1 I *D sky130_fd_sc_hd__a21o_1
*I *484:A1 I *D sky130_fd_sc_hd__a21o_1
*I *483:A3 I *D sky130_fd_sc_hd__a31o_1
*I *641:A I *D sky130_fd_sc_hd__dlygate4sd3_1
*I *513:A1 I *D sky130_fd_sc_hd__a21o_1
*I *497:A3 I *D sky130_fd_sc_hd__a31o_1
*I *498:A1 I *D sky130_fd_sc_hd__a21o_1
*I *512:A3 I *D sky130_fd_sc_hd__a31o_1
*I *598:Q O *D sky130_fd_sc_hd__dfrtp_4
*CAP
1 *527:A3 0.000249563
2 *528:A1 0
3 *484:A1 0.000208867
4 *483:A3 0.000278208
5 *641:A 1.49415e-05
6 *513:A1 0
7 *497:A3 0
8 *498:A1 0.000569788
9 *512:A3 2.66804e-05
10 *598:Q 2.08101e-05
11 *94:117 0.000806915
12 *94:100 0.00107802
13 *94:79 0.000766101
14 *94:37 0.00104023
15 *94:20 0.000888073
16 *94:12 0.000650525
17 *94:10 0.00106047
18 *94:6 0.000982862
19 *483:A3 *534:A 0.000266404
20 *483:A3 *680:A 2.75145e-05
21 *483:A3 *147:109 0.000752159
22 *483:A3 *147:125 1.14973e-05
23 *483:A3 *156:58 0.000252275
24 *484:A1 *484:B1 0.000124007
25 *484:A1 *146:12 0.000204449
26 *484:A1 *146:25 9.01939e-05
27 *484:A1 *148:75 0.000107262
28 *484:A1 *198:12 0.000198939
29 *498:A1 *469:A 9.50342e-06
30 *498:A1 *498:B1 9.27255e-06
31 *498:A1 *499:A3 4.01535e-05
32 *498:A1 *503:B 9.2741e-05
33 *498:A1 *503:C 4.76037e-05
34 *498:A1 *503:D 0.000340517
35 *498:A1 *577:D 0
36 *498:A1 *636:A 0.000175312
37 *498:A1 *152:52 0.000191202
38 *498:A1 *152:54 0.000172071
39 *512:A3 *512:B1 5.33085e-05
40 *512:A3 *150:47 1.01152e-05
41 *512:A3 *154:53 3.98712e-05
42 *527:A3 *532:A1 0
43 *527:A3 *591:D 0
44 *527:A3 *124:10 0
45 *527:A3 *153:34 9.50342e-06
46 *527:A3 *153:36 0.000406778
47 *94:12 *599:D 1.1392e-05
48 *94:20 *512:B1 8.23457e-05
49 *94:20 *513:B1 8.52883e-05
50 *94:20 *514:A2 1.91597e-05
51 *94:20 *518:A 1.16854e-05
52 *94:20 *518:B 3.34183e-05
53 *94:20 *518:C 8.52845e-05
54 *94:20 *518:D 8.35068e-05
55 *94:20 *583:D 2.71912e-06
56 *94:20 *147:37 1.41165e-05
57 *94:20 *210:6 2.42675e-05
58 *94:37 *469:A 0
59 *94:37 *497:A1 5.4155e-06
60 *94:37 *507:B1 0.000135923
61 *94:37 *508:A2 4.81484e-06
62 *94:37 *519:B 9.37731e-05
63 *94:37 *581:D 0.000139238
64 *94:37 *662:A 4.82919e-05
65 *94:37 *147:14 7.88764e-05
66 *94:37 *147:29 3.33671e-05
67 *94:37 *147:37 4.49415e-05
68 *94:37 *150:47 3.51805e-05
69 *94:37 *154:53 0.000209284
70 *94:117 *490:B 0.000164679
71 *94:117 *529:A2 2.88945e-05
72 *94:117 *567:A 9.05377e-05
73 *94:117 *146:8 0.000182089
74 *94:117 *146:12 0.00045105
75 *94:117 *147:182 1.03755e-05
76 *94:117 *148:75 0.000107755
77 *94:117 *148:117 0.000115335
78 *94:117 *153:36 3.23391e-05
79 *94:117 *156:52 1.1561e-05
80 *94:117 *196:10 0.000126255
81 *490:C *484:A1 3.95269e-05
82 *498:A2 *498:A1 7.47284e-05
83 *504:C *498:A1 0.000419392
84 *513:A2 *94:12 4.77719e-05
85 *570:CLK *483:A3 4.82919e-05
86 *571:RESET_B *483:A3 9.30717e-05
87 *578:RESET_B *498:A1 0
88 *590:CLK *527:A3 2.92496e-05
89 *590:CLK *94:117 0
90 *591:CLK *527:A3 4.54719e-05
91 *598:CLK *641:A 1.37328e-05
92 *598:CLK *94:10 0.000241249
93 *73:14 *94:37 0.000123592
94 *82:8 *94:117 0
95 *86:10 *94:100 0.00015639
96 *87:49 *498:A1 0
97 *88:35 *527:A3 4.66108e-05
98 *88:35 *94:117 8.49205e-05
99 *91:84 *498:A1 3.18137e-05
100 *93:41 *94:37 0
*RES
1 *598:Q *94:6 1.96 
2 *94:6 *94:10 9.09 
3 *94:10 *94:12 3.555 
4 *94:12 *94:20 8.09 
5 *94:20 *512:A3 4.47 
6 *94:20 *94:37 13.04 
7 *94:37 *498:A1 23.31 
8 *94:37 *497:A3 1.6 
9 *94:12 *513:A1 1.6 
10 *94:10 *641:A 1.96 
11 *94:6 *94:79 1.83 
12 *94:79 *483:A3 15.635 
13 *94:79 *94:100 5.555 
14 *94:100 *484:A1 9.975 
15 *94:100 *94:117 15.905 
16 *94:117 *528:A1 1.6 
17 *94:117 *527:A3 10.745 
*END

*D_NET *95 0.0175639
*CONN
*I *643:A I *D sky130_fd_sc_hd__dlygate4sd3_1
*I *530:A1 I *D sky130_fd_sc_hd__a21o_1
*I *529:A3 I *D sky130_fd_sc_hd__a31o_1
*I *486:A1 I *D sky130_fd_sc_hd__a21o_1
*I *485:A3 I *D sky130_fd_sc_hd__a31o_1
*I *515:A1 I *D sky130_fd_sc_hd__a21o_1
*I *514:A3 I *D sky130_fd_sc_hd__a31o_1
*I *500:A1 I *D sky130_fd_sc_hd__a21o_1
*I *499:A3 I *D sky130_fd_sc_hd__a31o_1
*I *599:Q O *D sky130_fd_sc_hd__dfrtp_4
*CAP
1 *643:A 2.27504e-05
2 *530:A1 5.74582e-05
3 *529:A3 0.000256452
4 *486:A1 9.28773e-05
5 *485:A3 0
6 *515:A1 0
7 *514:A3 8.43897e-05
8 *500:A1 0.000445145
9 *499:A3 7.15832e-05
10 *599:Q 9.08485e-05
11 *95:118 0.000668495
12 *95:105 0.000724677
13 *95:94 0.00112782
14 *95:62 0.000169715
15 *95:26 0.00255987
16 *95:18 0.00343447
17 *95:12 0.00218173
18 *95:10 0.000138719
19 *486:A1 *486:A2 4.99619e-05
20 *486:A1 *619:A 8.88108e-06
21 *499:A3 *497:B1 1.77595e-05
22 *499:A3 *636:A 4.4123e-05
23 *500:A1 *500:B1 5.53249e-06
24 *500:A1 *152:54 0
25 *514:A3 *516:A1 5.53249e-06
26 *514:A3 *150:57 7.81954e-05
27 *529:A3 *529:B1 8.49205e-05
28 *529:A3 *531:A1 8.49205e-05
29 *529:A3 *531:B1 4.43871e-06
30 *529:A3 *590:D 0.000449113
31 *529:A3 *678:A 5.57182e-05
32 *529:A3 *96:54 0.000117267
33 *529:A3 *127:12 0.000133025
34 *529:A3 *156:44 0.000275548
35 *530:A1 *127:12 0.000188069
36 *95:10 *563:A 4.92096e-05
37 *95:10 *564:A 0.000126679
38 *95:10 *155:8 4.82919e-05
39 *95:10 *155:21 3.09233e-05
40 *95:12 *564:A 4.44927e-05
41 *95:18 *564:A 0.000150149
42 *95:62 *514:B1 3.82741e-05
43 *95:62 *548:A 0
44 *95:94 *485:A1 5.37074e-05
45 *95:94 *489:A 8.49205e-05
46 *95:94 *489:B 6.9924e-05
47 *95:94 *489:D 8.65905e-05
48 *95:94 *571:D 0.0003209
49 *95:94 *572:D 1.47347e-05
50 *95:94 *681:A 4.22057e-05
51 *95:94 *199:12 4.80654e-05
52 *95:105 *485:A1 4.21973e-05
53 *95:105 *485:B1 0.000124895
54 *95:105 *486:B1 5.30673e-05
55 *95:105 *488:A2 0
56 *95:105 *138:14 8.53113e-06
57 *95:105 *138:23 0.000108322
58 *95:105 *199:12 0.000164352
59 *95:118 *477:B1 0.000153577
60 *95:118 *478:A2 0
61 *95:118 *486:B1 0
62 *95:118 *621:A 0.000417249
63 *95:118 *103:10 0.000143266
64 *95:118 *104:12 0.000115571
65 *95:118 *138:23 0.000121575
66 *95:118 *156:34 0.000185748
67 seg0[1] *95:118 5.50305e-05
68 *490:C *95:94 4.66108e-05
69 *498:A1 *499:A3 4.01535e-05
70 *501:A1 *500:A1 0
71 *515:A2 *514:A3 4.66108e-05
72 *515:A2 *95:62 8.23457e-05
73 *530:A2 *529:A3 5.83121e-06
74 *530:A2 *530:A1 0.000125313
75 *584:RESET_B *514:A3 0.000139238
76 *590:CLK *529:A3 7.07801e-05
77 *599:RESET_B *643:A 4.66108e-05
78 *599:RESET_B *95:94 3.09179e-05
79 *73:33 *529:A3 0.000210151
80 *74:33 *499:A3 4.66108e-05
81 *86:59 *95:94 1.36454e-05
82 *86:65 *95:94 2.66586e-05
*RES
1 *599:Q *95:10 5.94 
2 *95:10 *95:12 0.615 
3 *95:12 *95:18 4.2233 
4 *95:18 *95:26 4.2642 
5 *95:26 *499:A3 5.10463 
6 *95:26 *500:A1 5.17903 
7 *95:18 *95:62 3.7825 
8 *95:62 *514:A3 7.685 
9 *95:62 *515:A1 1.6 
10 *95:12 *95:94 14.78 
11 *95:94 *485:A3 1.6 
12 *95:94 *95:105 8.315 
13 *95:105 *486:A1 4.74 
14 *95:105 *95:118 12.815 
15 *95:118 *529:A3 15.29 
16 *95:118 *530:A1 3.79 
17 *95:10 *643:A 4.05 
*END

*D_NET *96 0.017363
*CONN
*I *487:A3 I *D sky130_fd_sc_hd__a31o_1
*I *488:A1 I *D sky130_fd_sc_hd__a21o_1
*I *502:A1 I *D sky130_fd_sc_hd__a21o_1
*I *501:A3 I *D sky130_fd_sc_hd__a31o_1
*I *645:A I *D sky130_fd_sc_hd__dlygate4sd3_1
*I *532:A1 I *D sky130_fd_sc_hd__a21o_1
*I *531:A3 I *D sky130_fd_sc_hd__a31o_1
*I *516:A3 I *D sky130_fd_sc_hd__a31o_1
*I *517:A1 I *D sky130_fd_sc_hd__a21o_1
*I *600:Q O *D sky130_fd_sc_hd__dfrtp_4
*CAP
1 *487:A3 0
2 *488:A1 0.000508705
3 *502:A1 4.39476e-05
4 *501:A3 0.000129512
5 *645:A 0
6 *532:A1 0.000315489
7 *531:A3 0
8 *516:A3 0.000236313
9 *517:A1 0.000121704
10 *600:Q 0
11 *96:119 0.0013618
12 *96:87 0.000812669
13 *96:54 0.00177017
14 *96:36 0.00166669
15 *96:32 0.00123653
16 *96:17 0.000621625
17 *96:8 0.000720088
18 *96:4 0.00145148
19 *488:A1 *488:B1 5.53249e-06
20 *488:A1 *638:A 0
21 *488:A1 *682:A 3.40435e-05
22 *501:A3 *501:B1 1.91597e-05
23 *501:A3 *152:24 1.05984e-05
24 *501:A3 *152:26 1.9872e-05
25 *502:A1 *148:136 9.30717e-05
26 *516:A3 *516:B1 0
27 *516:A3 *548:A 0
28 *516:A3 *585:D 0
29 *516:A3 *637:A 0
30 *532:A1 *529:B1 4.80285e-05
31 *532:A1 *531:A2 1.94805e-05
32 *532:A1 *532:B1 2.55502e-05
33 *532:A1 *591:D 0.000116165
34 *532:A1 *675:A 8.8266e-05
35 *532:A1 *124:10 5.53249e-06
36 *532:A1 *156:115 0.000156437
37 *96:32 *600:D 0.000116151
38 *96:32 *637:A 0
39 *96:54 *479:A1 9.0444e-05
40 *96:54 *490:A 0.000160641
41 *96:54 *562:A 0.0001249
42 *96:54 *590:D 9.54399e-05
43 *96:54 *618:A 4.82919e-05
44 *96:54 *675:A 0
45 *96:54 *678:A 0.000155234
46 *96:54 *147:182 7.96104e-06
47 *96:54 *156:34 0
48 *96:54 *156:52 6.07328e-05
49 *96:54 *156:58 0.000160641
50 *96:54 *156:115 0
51 *96:54 *195:6 5.78185e-05
52 *96:87 *501:B1 3.24381e-05
53 *96:87 *502:B1 5.02217e-05
54 *96:87 *148:136 7.30277e-05
55 *96:87 *150:35 0
56 *96:119 *487:B1 1.94636e-05
57 *96:119 *572:D 4.82863e-05
58 *96:119 *640:A 8.65905e-05
59 *96:119 *681:A 0
60 *96:119 *148:33 0.000192125
61 *96:119 *148:62 0.000245893
62 seg0[5] *488:A1 0.000203178
63 *479:A3 *96:54 5.05167e-05
64 *487:A2 *488:A1 3.00381e-05
65 *487:A2 *96:119 0.000292059
66 *490:C *96:54 1.70906e-05
67 *501:A1 *501:A3 8.52845e-05
68 *501:A1 *502:A1 9.21008e-05
69 *504:C *96:87 1.83194e-05
70 *515:A2 *517:A1 8.50843e-05
71 *527:A3 *532:A1 0
72 *529:A3 *96:54 0.000117267
73 *568:CLK *96:54 0.000131567
74 *569:RESET_B *96:54 0
75 *585:CLK *516:A3 2.12738e-05
76 *585:CLK *96:32 3.33486e-06
77 *589:RESET_B *532:A1 0.000100139
78 *590:CLK *532:A1 0
79 *590:RESET_B *96:54 0
80 *591:CLK *532:A1 0
81 *595:SET_B *96:87 0
82 *604:A *96:87 8.30822e-05
83 *605:A *96:36 0.000542006
84 *605:A *96:54 3.63577e-05
85 *606:A *96:54 0.00028464
86 *613:A *517:A1 3.81908e-06
87 *613:A *96:8 0.000157751
88 *613:A *96:119 0.000141467
89 *72:10 *517:A1 5.062e-06
90 *72:34 *96:32 0.000494587
91 *72:34 *96:87 0.000628294
92 *73:33 *96:54 0.000178111
93 *80:20 *96:32 4.23028e-05
94 *86:26 *96:119 2.75145e-05
95 *86:39 *96:119 2.59926e-05
96 *92:82 *96:87 0
*RES
1 *600:Q *96:4 1.6 
2 *96:4 *96:8 7.365 
3 *96:8 *517:A1 3.085 
4 *96:8 *96:17 2 
5 *96:17 *516:A3 7.02 
6 *96:17 *96:32 9.33 
7 *96:32 *96:36 6.935 
8 *96:36 *96:54 30.445 
9 *96:54 *531:A3 1.6 
10 *96:54 *532:A1 12.485 
11 *96:36 *645:A 1.6 
12 *96:32 *96:87 15.335 
13 *96:87 *501:A3 3.79 
14 *96:87 *502:A1 6.725 
15 *96:4 *96:119 18.595 
16 *96:119 *488:A1 14.24 
17 *96:119 *487:A3 1.6 
*END

*D_NET *97 0.000487896
*CONN
*I *592:D I *D sky130_fd_sc_hd__dfrtp_1
*I *490:X O *D sky130_fd_sc_hd__and3_1
*CAP
1 *592:D 0.000123551
2 *490:X 0.000123551
3 *592:D *156:52 7.35729e-05
4 *592:RESET_B *592:D 0.000120186
5 *86:116 *592:D 4.70343e-05
*RES
1 *490:X *592:D 9.72 
*END

*D_NET *98 0.000679628
*CONN
*I *593:D I *D sky130_fd_sc_hd__dfrtp_1
*I *504:X O *D sky130_fd_sc_hd__and3_1
*CAP
1 *593:D 0.000216909
2 *504:X 0.000216909
3 *593:D *148:136 0.000135373
4 *593:D *152:24 4.94474e-05
5 *593:D *155:63 4.76682e-05
6 *93:33 *593:D 1.33205e-05
*RES
1 *504:X *593:D 11.265 
*END

*D_NET *99 0.00218162
*CONN
*I *594:D I *D sky130_fd_sc_hd__dfrtp_1
*I *519:X O *D sky130_fd_sc_hd__and3_1
*CAP
1 *594:D 0.000891997
2 *519:X 0.000891997
3 *594:D *511:B1 1.7635e-05
4 *594:D *667:A 5.83121e-06
5 *594:D *150:35 0.000249341
6 *594:D *207:8 6.07575e-06
7 *594:D *209:10 4.66108e-05
8 *511:A1 *594:D 6.55011e-05
9 *519:C *594:D 0
10 *85:14 *594:D 6.63219e-06
*RES
1 *519:X *594:D 10.8964 
*END

*D_NET *100 0.000756377
*CONN
*I *475:A1 I *D sky130_fd_sc_hd__a21o_1
*I *592:Q O *D sky130_fd_sc_hd__dfrtp_1
*CAP
1 *475:A1 0.00031941
2 *592:Q 0.00031941
3 *475:A1 *147:107 4.51969e-05
4 *475:A1 *147:182 0
5 *93:93 *475:A1 7.23602e-05
*RES
1 *592:Q *475:A1 11.28 
*END

*D_NET *101 0.000719997
*CONN
*I *648:A I *D sky130_fd_sc_hd__dlygate4sd3_1
*I *476:A1_N I *D sky130_fd_sc_hd__o2bb2a_1
*I *593:Q O *D sky130_fd_sc_hd__dfrtp_1
*CAP
1 *648:A 4.12636e-05
2 *476:A1_N 0.000112915
3 *593:Q 4.19812e-05
4 *101:6 0.00019616
5 *476:A1_N *561:A 3.90359e-05
6 *476:A1_N *566:A 0.000107401
7 *648:A *561:A 4.70343e-05
8 *648:A *155:100 0.00011852
9 *101:6 *155:63 9.60582e-07
10 *602:RESET_B *476:A1_N 1.47256e-05
*RES
1 *593:Q *101:6 2.05 
2 *101:6 *476:A1_N 4.28875 
3 *101:6 *648:A 6.98 
*END

*D_NET *102 0.0015834
*CONN
*I *473:C I *D sky130_fd_sc_hd__and4b_1
*I *594:Q O *D sky130_fd_sc_hd__dfrtp_1
*CAP
1 *473:C 0.000337341
2 *594:Q 0.000337341
3 *473:C *147:107 3.52139e-06
4 *473:C *150:35 3.23663e-05
5 *473:C *154:21 0.000109377
6 *473:C *155:46 9.14049e-05
7 *473:A_N *473:C 2.30292e-05
8 *594:RESET_B *473:C 0.0001249
9 *603:CLK *473:C 9.30787e-05
10 *91:6 *473:C 1.08758e-05
11 *91:149 *473:C 0.00014719
12 *92:126 *473:C 0.000272978
*RES
1 *594:Q *473:C 14.055 
*END

*D_NET *103 0.0009234
*CONN
*I *477:B1 I *D sky130_fd_sc_hd__a31o_1
*I *635:A I *D sky130_fd_sc_hd__dlygate4sd3_1
*I *568:Q O *D sky130_fd_sc_hd__dfrtp_1
*CAP
1 *477:B1 4.03972e-05
2 *635:A 3.76639e-05
3 *568:Q 7.07791e-05
4 *103:10 0.00014884
5 *477:B1 *621:A 0.000161421
6 *103:10 *621:A 0.000139933
7 *103:10 *195:6 2.75229e-05
8 *95:118 *477:B1 0.000153577
9 *95:118 *103:10 0.000143266
*RES
1 *568:Q *103:10 5.685 
2 *103:10 *635:A 4.05 
3 *103:10 *477:B1 5.49 
*END

*D_NET *104 0.00175413
*CONN
*I *651:A I *D sky130_fd_sc_hd__dlygate4sd3_1
*I *479:B1 I *D sky130_fd_sc_hd__a31o_1
*I *569:Q O *D sky130_fd_sc_hd__dfrtp_1
*CAP
1 *651:A 0
2 *479:B1 0.000415173
3 *569:Q 6.08833e-05
4 *104:12 0.000476056
5 *479:B1 *477:A1 8.40269e-05
6 *479:B1 *477:A2 0.000245109
7 *479:B1 *479:A1 0.000101842
8 *479:B1 *480:B1 3.87722e-05
9 *479:B1 *147:182 0
10 *479:B1 *156:34 6.97256e-05
11 *104:12 *477:A1 4.82863e-05
12 *104:12 *156:34 6.16894e-05
13 *569:RESET_B *479:B1 3.69904e-05
14 *95:118 *104:12 0.000115571
*RES
1 *569:Q *104:12 7.43 
2 *104:12 *479:B1 12.2262 
3 *104:12 *651:A 1.6 
*END

*D_NET *105 0.00133868
*CONN
*I *640:A I *D sky130_fd_sc_hd__dlygate4sd3_1
*I *481:B1 I *D sky130_fd_sc_hd__a31o_1
*I *570:Q O *D sky130_fd_sc_hd__dfrtp_1
*CAP
1 *640:A 0.000144411
2 *481:B1 0.000130542
3 *570:Q 0.000248432
4 *105:8 0.000523385
5 *640:A *564:A 0
6 *105:8 *564:A 8.8266e-05
7 *481:A3 *481:B1 0
8 *481:A3 *640:A 0
9 *570:RESET_B *481:B1 4.70343e-05
10 *570:RESET_B *640:A 1.94723e-05
11 *613:A *640:A 5.05437e-05
12 *96:119 *640:A 8.65905e-05
*RES
1 *570:Q *105:8 7.5 
2 *105:8 *481:B1 5.49 
3 *105:8 *640:A 6.54 
*END

*D_NET *106 0.00182507
*CONN
*I *634:A I *D sky130_fd_sc_hd__dlygate4sd3_1
*I *483:B1 I *D sky130_fd_sc_hd__a31o_1
*I *571:Q O *D sky130_fd_sc_hd__dfrtp_1
*CAP
1 *634:A 5.15478e-05
2 *483:B1 0.000201429
3 *571:Q 9.34108e-05
4 *106:8 0.000346388
5 *483:B1 *489:D 0
6 *483:B1 *572:D 0.000105002
7 *483:B1 *681:A 0.000175848
8 *483:B1 *148:33 0
9 *483:B1 *148:49 0.000164874
10 *483:B1 *198:12 8.08153e-06
11 *634:A *197:10 0
12 *634:A *198:12 2.16389e-05
13 *106:8 *489:B 1.19928e-05
14 *106:8 *571:D 3.64998e-06
15 *106:8 *572:D 8.49205e-05
16 *490:C *483:B1 8.70204e-05
17 *490:C *634:A 0.000116158
18 *570:CLK *483:B1 0.00012657
19 *573:CLK *483:B1 3.66286e-05
20 *86:16 *634:A 8.53113e-06
21 *86:39 *483:B1 0.000181376
*RES
1 *571:Q *106:8 4.74 
2 *106:8 *483:B1 10.035 
3 *106:8 *634:A 4.98 
*END

*D_NET *107 0.000588101
*CONN
*I *623:A I *D sky130_fd_sc_hd__dlygate4sd3_1
*I *485:B1 I *D sky130_fd_sc_hd__a31o_1
*I *572:Q O *D sky130_fd_sc_hd__dfrtp_1
*CAP
1 *623:A 0
2 *485:B1 5.05434e-05
3 *572:Q 0.000135372
4 *107:12 0.000185915
5 *107:12 *488:A2 6.36578e-05
6 *487:A2 *107:12 0
7 *572:RESET_B *107:12 2.77183e-05
8 *73:33 *107:12 0
9 *95:105 *485:B1 0.000124895
*RES
1 *572:Q *107:12 7.775 
2 *107:12 *485:B1 2.74 
3 *107:12 *623:A 1.6 
*END

*D_NET *108 0.00227052
*CONN
*I *638:A I *D sky130_fd_sc_hd__dlygate4sd3_1
*I *487:B1 I *D sky130_fd_sc_hd__a31o_1
*I *573:Q O *D sky130_fd_sc_hd__dfrtp_1
*CAP
1 *638:A 0.000215081
2 *487:B1 0.000383729
3 *573:Q 9.7059e-05
4 *108:6 0.000695869
5 *487:B1 *681:A 6.47516e-05
6 *487:B1 *148:62 3.67779e-05
7 *487:B1 *200:10 0.000287492
8 *638:A *488:A2 0.000139245
9 *638:A *488:B1 0
10 *638:A *537:A 4.99619e-05
11 *638:A *138:14 0
12 *108:6 *200:10 0.000163204
13 *487:A2 *638:A 0
14 *488:A1 *638:A 0
15 *572:RESET_B *638:A 6.65725e-05
16 *573:RESET_B *638:A 5.13155e-05
17 *96:119 *487:B1 1.94636e-05
*RES
1 *573:Q *108:6 3.085 
2 *108:6 *487:B1 11.225 
3 *108:6 *638:A 9.995 
*END

*D_NET *109 0.0010972
*CONN
*I *631:A I *D sky130_fd_sc_hd__dlygate4sd3_1
*I *491:B1 I *D sky130_fd_sc_hd__a31o_1
*I *574:Q O *D sky130_fd_sc_hd__dfrtp_1
*CAP
1 *631:A 0.000108435
2 *491:B1 9.82003e-05
3 *574:Q 4.26436e-05
4 *109:10 0.000249279
5 *109:10 *492:B1 7.4027e-05
6 *491:A3 *491:B1 5.05437e-05
7 *494:A2 *491:B1 8.40269e-05
8 *494:A2 *631:A 0.000263382
9 *74:67 *491:B1 9.80943e-06
10 *87:37 *109:10 0.000116853
*RES
1 *574:Q *109:10 6.98 
2 *109:10 *491:B1 3.43 
3 *109:10 *631:A 4.12 
*END

*D_NET *110 0.000902533
*CONN
*I *493:B1 I *D sky130_fd_sc_hd__a31o_1
*I *652:A I *D sky130_fd_sc_hd__dlygate4sd3_1
*I *575:Q O *D sky130_fd_sc_hd__dfrtp_1
*CAP
1 *493:B1 0.000127388
2 *652:A 0
3 *575:Q 7.6689e-05
4 *110:12 0.000204077
5 *493:B1 *493:A2 4.82919e-05
6 *493:B1 *155:113 0
7 *110:12 *504:A 0.000120186
8 *110:12 *155:113 0
9 *494:A1 *110:12 3.64998e-06
10 *604:A *493:B1 1.7635e-05
11 *607:A *493:B1 4.66108e-05
12 *92:61 *493:B1 8.5734e-05
13 *92:61 *110:12 5.98342e-05
14 *92:65 *493:B1 4.95523e-05
15 *93:12 *493:B1 6.28843e-05
*RES
1 *575:Q *110:12 7.43 
2 *110:12 *652:A 1.6 
3 *110:12 *493:B1 8.645 
*END

*D_NET *111 0.00117944
*CONN
*I *495:B1 I *D sky130_fd_sc_hd__a31o_1
*I *628:A I *D sky130_fd_sc_hd__dlygate4sd3_1
*I *576:Q O *D sky130_fd_sc_hd__dfrtp_1
*CAP
1 *495:B1 0
2 *628:A 9.17252e-05
3 *576:Q 0.000108464
4 *111:12 0.000200189
5 *628:A *496:B1 0.000124007
6 *628:A *155:71 0.00013056
7 *111:12 *495:A1 0.000116151
8 *111:12 *664:A 8.23457e-05
9 *496:A1 *628:A 0
10 *593:CLK *628:A 0.000198618
11 *91:110 *111:12 6.28687e-05
12 *93:33 *628:A 6.45093e-05
*RES
1 *576:Q *111:12 7.775 
2 *111:12 *628:A 5.17 
3 *111:12 *495:B1 1.6 
*END

*D_NET *112 0.0026067
*CONN
*I *497:B1 I *D sky130_fd_sc_hd__a31o_1
*I *636:A I *D sky130_fd_sc_hd__dlygate4sd3_1
*I *577:Q O *D sky130_fd_sc_hd__dfrtp_1
*CAP
1 *497:B1 0.000386562
2 *636:A 0.000173957
3 *577:Q 0.000177264
4 *112:6 0.000737783
5 *497:B1 *497:A1 9.28507e-05
6 *636:A *503:D 4.66108e-05
7 *498:A1 *636:A 0.000175312
8 *499:A1 *497:B1 0.000112507
9 *499:A3 *497:B1 1.77595e-05
10 *499:A3 *636:A 4.4123e-05
11 *72:34 *497:B1 0
12 *73:14 *497:B1 9.53743e-05
13 *74:33 *497:B1 2.56167e-05
14 *74:33 *112:6 7.34531e-05
15 *87:12 *636:A 8.53113e-06
16 *91:72 *636:A 2.49909e-05
17 *91:84 *636:A 0.000414009
*RES
1 *577:Q *112:6 3.775 
2 *112:6 *636:A 11 
3 *112:6 *497:B1 11.675 
*END

*D_NET *113 0.00101246
*CONN
*I *499:B1 I *D sky130_fd_sc_hd__a31o_1
*I *627:A I *D sky130_fd_sc_hd__dlygate4sd3_1
*I *578:Q O *D sky130_fd_sc_hd__dfrtp_1
*CAP
1 *499:B1 0.000132123
2 *627:A 0
3 *578:Q 3.51087e-05
4 *113:6 0.000167232
5 *499:B1 *152:26 7.32549e-05
6 *499:B1 *152:32 4.66108e-05
7 *499:B1 *152:52 9.1608e-05
8 *499:B1 *152:54 5.18317e-06
9 *499:B1 *205:12 3.62197e-05
10 *113:6 *152:32 0.000158066
11 *578:RESET_B *499:B1 0.00010899
12 *578:RESET_B *113:6 0.000158066
*RES
1 *578:Q *113:6 3.085 
2 *113:6 *627:A 1.6 
3 *113:6 *499:B1 8.885 
*END

*D_NET *114 0.00141366
*CONN
*I *625:A I *D sky130_fd_sc_hd__dlygate4sd3_1
*I *501:B1 I *D sky130_fd_sc_hd__a31o_1
*I *579:Q O *D sky130_fd_sc_hd__dfrtp_1
*CAP
1 *625:A 0.000101263
2 *501:B1 8.87004e-05
3 *579:Q 7.33577e-05
4 *114:12 0.000263321
5 *501:B1 *152:24 0.000269103
6 *625:A *152:22 0.000148084
7 *625:A *152:24 8.40269e-05
8 *114:12 *504:A 0.000116165
9 *501:A1 *501:B1 4.77719e-05
10 *501:A3 *501:B1 1.91597e-05
11 *504:C *501:B1 9.16333e-06
12 *579:RESET_B *114:12 4.66108e-05
13 *604:A *114:12 0.000114492
14 *96:87 *501:B1 3.24381e-05
*RES
1 *579:Q *114:12 7.43 
2 *114:12 *501:B1 4.12 
3 *114:12 *625:A 3.775 
*END

*D_NET *115 0.00185316
*CONN
*I *626:A I *D sky130_fd_sc_hd__dlygate4sd3_1
*I *505:B1 I *D sky130_fd_sc_hd__a31o_1
*I *580:Q O *D sky130_fd_sc_hd__dfrtp_1
*CAP
1 *626:A 0.000315148
2 *505:B1 0.000161377
3 *580:Q 0
4 *115:4 0.000476525
5 *505:B1 *505:A1 0.000116165
6 *505:B1 *505:A2 6.47594e-05
7 *626:A *508:B1 1.01155e-05
8 *626:A *147:14 7.23533e-05
9 *626:A *154:47 2.20014e-05
10 *626:A *208:16 0.00032608
11 *85:35 *626:A 0.000180603
12 *85:37 *505:B1 8.88715e-05
13 *85:37 *626:A 1.91597e-05
*RES
1 *580:Q *115:4 1.6 
2 *115:4 *505:B1 8.465 
3 *115:4 *626:A 10.82 
*END

*D_NET *116 0.00195228
*CONN
*I *624:A I *D sky130_fd_sc_hd__dlygate4sd3_1
*I *508:B1 I *D sky130_fd_sc_hd__a31o_1
*I *581:Q O *D sky130_fd_sc_hd__dfrtp_1
*CAP
1 *624:A 0.000241973
2 *508:B1 0.000423249
3 *581:Q 0
4 *116:4 0.000665222
5 *508:B1 *509:B1 0
6 *508:B1 *147:14 3.75785e-05
7 *508:B1 *150:35 1.88602e-05
8 *508:B1 *154:47 2.30258e-05
9 *508:B1 *208:16 6.88421e-05
10 *624:A *509:B1 4.77757e-05
11 *624:A *154:35 8.32704e-05
12 *508:A3 *508:B1 0.00010364
13 *595:CLK *508:B1 0.000132212
14 *626:A *508:B1 1.01155e-05
15 *80:12 *508:B1 2.12738e-05
16 *85:33 *508:B1 6.23541e-06
17 *85:35 *508:B1 6.90044e-05
*RES
1 *581:Q *116:4 1.6 
2 *116:4 *508:B1 16.335 
3 *116:4 *624:A 4.735 
*END

*D_NET *117 0.00126386
*CONN
*I *629:A I *D sky130_fd_sc_hd__dlygate4sd3_1
*I *510:B1 I *D sky130_fd_sc_hd__a31o_1
*I *582:Q O *D sky130_fd_sc_hd__dfrtp_1
*CAP
1 *629:A 1.49104e-05
2 *510:B1 4.67102e-05
3 *582:Q 0.000127614
4 *117:10 0.000189235
5 *510:B1 *510:A1 8.65905e-05
6 *510:B1 *147:69 4.35348e-05
7 *510:B1 *150:97 0.000199833
8 *629:A *147:69 2.49909e-05
9 *629:A *150:97 3.57349e-05
10 *117:10 *514:A2 7.47145e-05
11 *117:10 *668:A 0
12 *117:10 *154:53 0.000219376
13 *93:41 *510:B1 0.000200615
*RES
1 *582:Q *117:10 8.255 
2 *117:10 *510:B1 4.12 
3 *117:10 *629:A 2.05 
*END

*D_NET *118 0.00125068
*CONN
*I *632:A I *D sky130_fd_sc_hd__dlygate4sd3_1
*I *512:B1 I *D sky130_fd_sc_hd__a31o_1
*I *583:Q O *D sky130_fd_sc_hd__dfrtp_1
*CAP
1 *632:A 5.23257e-05
2 *512:B1 0.000137987
3 *583:Q 5.26702e-05
4 *118:6 0.000242983
5 *512:B1 *514:A2 1.62913e-05
6 *512:B1 *518:B 4.00541e-06
7 *512:B1 *147:37 3.83194e-05
8 *512:B1 *150:47 2.07184e-05
9 *512:B1 *150:53 0.000176647
10 *512:B1 *154:53 5.43298e-05
11 *632:A *546:A 4.77757e-05
12 *632:A *583:D 0.000121023
13 *118:6 *583:D 0.000123225
14 *512:A3 *512:B1 5.33085e-05
15 *582:RESET_B *632:A 2.67222e-05
16 *94:20 *512:B1 8.23457e-05
*RES
1 *583:Q *118:6 2.74 
2 *118:6 *512:B1 9.155 
3 *118:6 *632:A 3.085 
*END

*D_NET *119 0.0021148
*CONN
*I *630:A I *D sky130_fd_sc_hd__dlygate4sd3_1
*I *514:B1 I *D sky130_fd_sc_hd__a31o_1
*I *584:Q O *D sky130_fd_sc_hd__dfrtp_1
*CAP
1 *630:A 0.000185953
2 *514:B1 0.000498062
3 *584:Q 0
4 *119:4 0.000684016
5 *514:B1 *514:A2 4.92062e-05
6 *514:B1 *548:A 0
7 *514:B1 *584:D 0.000151823
8 *514:B1 *154:78 0.000127932
9 *630:A *517:B1 8.81641e-05
10 *584:RESET_B *514:B1 0.000291372
11 *95:62 *514:B1 3.82741e-05
*RES
1 *584:Q *119:4 1.6 
2 *119:4 *514:B1 13.715 
3 *119:4 *630:A 4.735 
*END

*D_NET *120 0.00178083
*CONN
*I *637:A I *D sky130_fd_sc_hd__dlygate4sd3_1
*I *516:B1 I *D sky130_fd_sc_hd__a31o_1
*I *585:Q O *D sky130_fd_sc_hd__dfrtp_1
*CAP
1 *637:A 0.000215383
2 *516:B1 0.000393234
3 *585:Q 0.000107051
4 *120:8 0.000715668
5 *516:B1 *516:A1 1.63175e-05
6 *516:B1 *516:A2 0.000294811
7 *516:B1 *564:A 0
8 *637:A *564:A 0
9 *637:A *600:D 0
10 seg2[5] *516:B1 3.52139e-06
11 *516:A3 *516:B1 0
12 *516:A3 *637:A 0
13 *600:RESET_B *516:B1 2.97004e-06
14 *600:RESET_B *637:A 3.18737e-05
15 *96:32 *637:A 0
*RES
1 *585:Q *120:8 4.74 
2 *120:8 *516:B1 9.57 
3 *120:8 *637:A 7.02 
*END

*D_NET *121 0.0014815
*CONN
*I *647:A I *D sky130_fd_sc_hd__dlygate4sd3_1
*I *520:B1 I *D sky130_fd_sc_hd__a31o_1
*I *586:Q O *D sky130_fd_sc_hd__dfrtp_1
*CAP
1 *647:A 0
2 *520:B1 0.000223276
3 *586:Q 0.000176085
4 *121:16 0.000399361
5 *520:B1 *523:A1 0.00037572
6 *520:B1 *523:B1 0
7 *520:B1 *672:A 0.000116853
8 *520:B1 *151:79 0
9 *520:B1 *153:84 0
10 *121:16 *587:D 8.65905e-05
11 *121:16 *153:84 0
12 *524:A1 *121:16 0
13 *586:RESET_B *121:16 5.30673e-05
14 *92:20 *121:16 5.05437e-05
*RES
1 *586:Q *121:16 8.675 
2 *121:16 *520:B1 10.61 
3 *121:16 *647:A 1.6 
*END

*D_NET *122 0.00079434
*CONN
*I *523:B1 I *D sky130_fd_sc_hd__a31o_1
*I *644:A I *D sky130_fd_sc_hd__dlygate4sd3_1
*I *587:Q O *D sky130_fd_sc_hd__dfrtp_1
*CAP
1 *523:B1 0.000140551
2 *644:A 0
3 *587:Q 0.000118552
4 *122:10 0.000259103
5 *523:B1 *524:B1 4.11194e-05
6 *122:10 *156:115 3.72916e-05
7 *520:B1 *523:B1 0
8 *524:A1 *523:B1 4.82863e-05
9 *524:A2 *523:B1 0
10 *586:RESET_B *523:B1 3.09164e-05
11 *586:RESET_B *122:10 0.00011852
*RES
1 *587:Q *122:10 5.775 
2 *122:10 *644:A 3.6 
3 *122:10 *523:B1 6.195 
*END

*D_NET *123 0.00113656
*CONN
*I *649:A I *D sky130_fd_sc_hd__dlygate4sd3_1
*I *525:B1 I *D sky130_fd_sc_hd__a31o_1
*I *588:Q O *D sky130_fd_sc_hd__dfrtp_1
*CAP
1 *649:A 0.0001601
2 *525:B1 0.000251301
3 *588:Q 0
4 *123:4 0.000411401
5 *525:B1 *525:A2 5.53249e-06
6 *525:B1 *526:B1 7.24779e-05
7 *525:B1 *673:A 0
8 *649:A *522:B1 2.49909e-05
9 *520:A3 *525:B1 7.55391e-05
10 *588:RESET_B *525:B1 0
11 *596:RESET_B *649:A 1.19928e-05
12 *88:93 *525:B1 0
13 *92:12 *525:B1 0
14 *92:20 *649:A 0.000123225
*RES
1 *588:Q *123:4 1.6 
2 *123:4 *525:B1 10.49 
3 *123:4 *649:A 4.465 
*END

*D_NET *124 0.00111344
*CONN
*I *622:A I *D sky130_fd_sc_hd__dlygate4sd3_1
*I *527:B1 I *D sky130_fd_sc_hd__a31o_1
*I *589:Q O *D sky130_fd_sc_hd__dfrtp_1
*CAP
1 *622:A 1.69128e-05
2 *527:B1 0.000119198
3 *589:Q 0.000102747
4 *124:10 0.000238858
5 *527:B1 *528:B1 0.000107415
6 *527:B1 *151:69 4.82863e-05
7 *527:B1 *157:43 0.000426195
8 *622:A *157:43 4.82919e-05
9 *124:10 *153:34 0
10 *124:10 *156:115 0
11 *527:A3 *124:10 0
12 *532:A1 *124:10 5.53249e-06
13 *589:RESET_B *124:10 0
*RES
1 *589:Q *124:10 7.235 
2 *124:10 *527:B1 5.5 
3 *124:10 *622:A 2.05 
*END

*D_NET *125 0.00247689
*CONN
*I *650:A I *D sky130_fd_sc_hd__dlygate4sd3_1
*I *529:B1 I *D sky130_fd_sc_hd__a31o_1
*I *590:Q O *D sky130_fd_sc_hd__dfrtp_1
*CAP
1 *650:A 7.60916e-05
2 *529:B1 0.000247522
3 *590:Q 5.80652e-05
4 *125:10 0.000381679
5 *529:B1 *521:D 4.82863e-05
6 *529:B1 *531:A1 0.000108602
7 *529:B1 *531:A2 0.000296167
8 *529:B1 *554:A 0.000196376
9 *529:B1 *555:A 0.000118081
10 *529:B1 *675:A 4.08913e-05
11 *529:B1 *676:A 0.000378519
12 *529:B1 *151:44 3.00381e-05
13 *650:A *555:A 7.40446e-05
14 *650:A *676:A 4.82919e-05
15 *125:10 *555:A 7.89689e-05
16 *529:A3 *529:B1 8.49205e-05
17 *532:A1 *529:B1 4.80285e-05
18 *591:RESET_B *125:10 0.000162318
*RES
1 *590:Q *125:10 7.49 
2 *125:10 *529:B1 9.655 
3 *125:10 *650:A 3.1 
*END

*D_NET *126 0.00180676
*CONN
*I *633:A I *D sky130_fd_sc_hd__dlygate4sd3_1
*I *531:B1 I *D sky130_fd_sc_hd__a31o_1
*I *591:Q O *D sky130_fd_sc_hd__dfrtp_1
*CAP
1 *633:A 0.000208835
2 *531:B1 0.000545572
3 *591:Q 0
4 *126:4 0.000754406
5 *531:B1 *531:A2 2.78732e-05
6 *531:B1 *591:D 6.69341e-05
7 *633:A *621:A 0
8 *633:A *676:A 5.4003e-05
9 seg3[5] *633:A 4.24632e-05
10 *529:A3 *531:B1 4.43871e-06
11 *590:CLK *531:B1 0
12 *591:RESET_B *531:B1 7.69078e-05
13 *82:25 *531:B1 2.53258e-05
*RES
1 *591:Q *126:4 1.6 
2 *126:4 *531:B1 12.26 
3 *126:4 *633:A 9.05 
*END

*D_NET *127 0.00646844
*CONN
*I *474:D_N I *D sky130_fd_sc_hd__nor4b_1
*I *521:B I *D sky130_fd_sc_hd__and4b_2
*I *471:C I *D sky130_fd_sc_hd__and4bb_2
*I *506:C I *D sky130_fd_sc_hd__and4bb_2
*I *603:D I *D sky130_fd_sc_hd__dfrtp_1
*I *473:B I *D sky130_fd_sc_hd__and4b_1
*I *653:X O *D sky130_fd_sc_hd__buf_1
*CAP
1 *474:D_N 2.08101e-05
2 *521:B 4.67125e-05
3 *471:C 9.96054e-05
4 *506:C 3.38648e-05
5 *603:D 0.000114222
6 *473:B 7.77638e-05
7 *653:X 0.00058105
8 *127:57 0.00028331
9 *127:44 0.000264397
10 *127:20 0.000435254
11 *127:14 0.000554761
12 *127:12 0.000819813
13 *471:C *471:A_N 0.000159684
14 *471:C *152:14 0.000161774
15 *506:C *474:B 4.82919e-05
16 *521:B *471:A_N 0.0001855
17 *127:12 *477:A1 0.00015639
18 *127:12 *621:A 0
19 *127:12 *678:A 0.000201508
20 *127:12 *148:79 0.000158965
21 *127:12 *156:44 0.000230129
22 *471:B_N *471:C 0.000365613
23 *473:A_N *473:B 0.000116165
24 *473:A_N *603:D 6.01354e-05
25 *473:A_N *127:14 2.34022e-05
26 *473:A_N *127:20 2.94272e-05
27 *474:C *127:14 0.000200615
28 *476:B1 *473:B 1.88904e-05
29 *476:B1 *603:D 5.23362e-05
30 *476:B1 *127:44 0
31 *476:B1 *127:57 0
32 *529:A3 *127:12 0.000133025
33 *530:A1 *127:12 0.000188069
34 *530:A2 *127:12 1.61831e-05
35 *591:RESET_B *127:12 1.03323e-05
36 *603:RESET_B *127:14 1.16344e-05
37 *616:A *471:C 4.82863e-05
38 *616:A *521:B 0.000158072
39 *653:A *127:12 5.20968e-05
40 *655:A *127:12 7.60965e-05
41 *655:A *127:14 6.52265e-05
42 *84:10 *473:B 0
43 *91:149 *473:B 3.59531e-06
44 *93:93 *473:B 0
45 *93:93 *127:44 8.78735e-05
46 *93:93 *127:57 0.000117564
*RES
1 *653:X *127:12 17.525 
2 *127:12 *127:14 3.9 
3 *127:14 *127:20 4.88 
4 *127:20 *473:B 5.235 
5 *127:20 *603:D 5.7 
6 *127:14 *127:44 3.89 
7 *127:44 *506:C 4.05 
8 *127:44 *127:57 4.655 
9 *127:57 *471:C 5.965 
10 *127:57 *521:B 3.43 
11 *127:12 *474:D_N 1.96 
*END

*D_NET *128 0.00148852
*CONN
*I *660:A I *D sky130_fd_sc_hd__buf_2
*I *493:X O *D sky130_fd_sc_hd__a31o_1
*CAP
1 *660:A 0.000531526
2 *493:X 0.000531526
3 *660:A *504:A 8.34505e-05
4 *660:A *504:B 9.14049e-05
5 *660:A *575:D 0.000200648
6 *607:A *660:A 4.99619e-05
*RES
1 *493:X *660:A 17.19 
*END

*D_NET *129 0.000945496
*CONN
*I *661:A I *D sky130_fd_sc_hd__buf_2
*I *495:X O *D sky130_fd_sc_hd__a31o_1
*CAP
1 *661:A 0.000343153
2 *495:X 0.000343153
3 *661:A *496:B1 3.23663e-05
4 *661:A *540:A 0
5 *661:A *541:A 8.31173e-05
6 *661:A *155:71 5.80043e-05
7 *496:A1 *661:A 8.57024e-05
*RES
1 *495:X *661:A 9.095 
*END

*D_NET *130 0.00148165
*CONN
*I *662:A I *D sky130_fd_sc_hd__buf_2
*I *497:X O *D sky130_fd_sc_hd__a31o_1
*CAP
1 *662:A 0.000375132
2 *497:X 0.000375132
3 *662:A *665:A 0.000163199
4 seg2[0] *662:A 3.72916e-05
5 *73:14 *662:A 0.000130445
6 *91:84 *662:A 0.000352161
7 *94:37 *662:A 4.82919e-05
*RES
1 *497:X *662:A 11.6 
*END

*D_NET *131 0.00206345
*CONN
*I *663:A I *D sky130_fd_sc_hd__buf_2
*I *499:X O *D sky130_fd_sc_hd__a31o_1
*CAP
1 *663:A 0.000688727
2 *499:X 0.000688727
3 *577:CLK *663:A 6.47516e-05
4 *577:RESET_B *663:A 0.00031163
5 *74:33 *663:A 0.000309612
*RES
1 *499:X *663:A 16.62 
*END

*D_NET *132 0.00334869
*CONN
*I *664:A I *D sky130_fd_sc_hd__buf_2
*I *501:X O *D sky130_fd_sc_hd__a31o_1
*CAP
1 *664:A 0.00126423
2 *501:X 0.00126423
3 *664:A *503:A 0
4 *664:A *576:D 0.000113255
5 *664:A *148:140 0.000333521
6 *664:A *152:26 8.51862e-05
7 *664:A *206:14 0.00011099
8 *576:RESET_B *664:A 2.66935e-05
9 *578:RESET_B *664:A 6.82367e-05
10 *87:8 *664:A 0
11 *87:12 *664:A 0
12 *87:49 *664:A 0
13 *111:12 *664:A 8.23457e-05
*RES
1 *501:X *664:A 30.31 
*END

*D_NET *133 0.000469295
*CONN
*I *665:A I *D sky130_fd_sc_hd__buf_2
*I *505:X O *D sky130_fd_sc_hd__a31o_1
*CAP
1 *665:A 0.000153048
2 *505:X 0.000153048
3 *662:A *665:A 0.000163199
4 *91:84 *665:A 0
*RES
1 *505:X *665:A 10.065 
*END

*D_NET *134 0.00207306
*CONN
*I *666:A I *D sky130_fd_sc_hd__buf_2
*I *508:X O *D sky130_fd_sc_hd__a31o_1
*CAP
1 *666:A 0.000747498
2 *508:X 0.000747498
3 *666:A *469:A 3.03775e-05
4 *666:A *505:A1 4.66742e-05
5 *666:A *519:B 2.42236e-05
6 *666:A *581:D 4.5783e-05
7 *666:A *154:53 0.000113797
8 *505:A3 *666:A 2.8185e-05
9 *507:A1 *666:A 1.19928e-05
10 *511:A2 *666:A 1.16578e-05
11 *581:CLK *666:A 0.000116165
12 *80:55 *666:A 8.18626e-05
13 *93:41 *666:A 6.73424e-05
*RES
1 *508:X *666:A 19.23 
*END

*D_NET *135 0.000765415
*CONN
*I *667:A I *D sky130_fd_sc_hd__buf_2
*I *510:X O *D sky130_fd_sc_hd__a31o_1
*CAP
1 *667:A 0.000178466
2 *510:X 0.000178466
3 *667:A *511:B1 8.08153e-06
4 *667:A *519:B 3.84331e-05
5 *667:A *580:D 4.99619e-05
6 *667:A *207:8 5.35396e-05
7 *667:A *209:10 8.4346e-05
8 *511:A1 *667:A 0.000115464
9 *519:C *667:A 5.28255e-05
10 *594:D *667:A 5.83121e-06
*RES
1 *510:X *667:A 11.355 
*END

*D_NET *136 0.0016779
*CONN
*I *668:A I *D sky130_fd_sc_hd__buf_2
*I *512:X O *D sky130_fd_sc_hd__a31o_1
*CAP
1 *668:A 0.000703779
2 *512:X 0.000703779
3 *668:A *510:A1 8.65905e-05
4 *668:A *510:A2 5.30673e-05
5 *668:A *514:A2 4.41506e-05
6 *668:A *518:A 7.5277e-05
7 *668:A *209:10 0
8 *93:41 *668:A 1.12578e-05
9 *117:10 *668:A 0
*RES
1 *512:X *668:A 15.795 
*END

*D_NET *137 0.000241862
*CONN
*I *669:A I *D sky130_fd_sc_hd__buf_2
*I *514:X O *D sky130_fd_sc_hd__a31o_1
*CAP
1 *669:A 8.4751e-05
2 *514:X 8.4751e-05
3 *669:A *516:A1 0
4 *669:A *548:A 0
5 seg0[6] *669:A 0
6 *584:RESET_B *669:A 7.23602e-05
*RES
1 *514:X *669:A 8.835 
*END

*D_NET *138 0.00859847
*CONN
*I *621:A I *D sky130_fd_sc_hd__clkbuf_4
*I *619:A I *D sky130_fd_sc_hd__clkbuf_4
*I *620:A I *D sky130_fd_sc_hd__buf_4
*I *654:X O *D sky130_fd_sc_hd__buf_1
*CAP
1 *621:A 0.000776337
2 *619:A 0.0011519
3 *620:A 0
4 *654:X 0.000369721
5 *138:23 0.00199303
6 *138:14 0.000434514
7 *619:A *482:A2 0.000495101
8 *619:A *486:A2 3.27543e-05
9 *619:A *486:B1 1.83756e-05
10 *619:A *146:25 0.000423637
11 *619:A *146:34 2.96334e-05
12 *619:A *197:10 9.00515e-05
13 *621:A *530:B1 0.000293726
14 *621:A *676:A 9.3062e-06
15 *621:A *677:A 0
16 *621:A *156:28 5.51158e-05
17 *621:A *156:34 0
18 *621:A *156:115 0
19 *621:A *157:10 0.000466565
20 *138:14 *488:A2 0
21 *138:14 *488:B1 2.99542e-05
22 *138:14 *156:10 8.77073e-05
23 *138:14 *200:10 5.43869e-05
24 *138:23 *156:10 1.43521e-05
25 *138:23 *156:28 8.35126e-05
26 *477:B1 *621:A 0.000161421
27 *478:A1 *621:A 0.000192771
28 *486:A1 *619:A 8.88108e-06
29 *524:A2 *621:A 7.71016e-05
30 *530:A2 *621:A 0.000179324
31 *568:RESET_B *621:A 9.30717e-05
32 *573:RESET_B *138:14 0
33 *591:RESET_B *621:A 0.000180615
34 *633:A *621:A 0
35 *638:A *138:14 0
36 *653:A *621:A 0
37 *654:A *138:14 0
38 *95:105 *138:14 8.53113e-06
39 *95:105 *138:23 0.000108322
40 *95:118 *621:A 0.000417249
41 *95:118 *138:23 0.000121575
42 *103:10 *621:A 0.000139933
43 *127:12 *621:A 0
*RES
1 *654:X *138:14 9.66 
2 *138:14 *620:A 3.6 
3 *138:14 *138:23 2.655 
4 *138:23 *619:A 19.17 
5 *138:23 *621:A 24.99 
*END

*D_NET *139 0.000118671
*CONN
*I *670:A I *D sky130_fd_sc_hd__buf_2
*I *516:X O *D sky130_fd_sc_hd__a31o_1
*CAP
1 *670:A 2.72945e-05
2 *516:X 2.72945e-05
3 *670:A *516:A1 0
4 *670:A *516:A2 3.40435e-05
5 seg2[5] *670:A 3.00381e-05
*RES
1 *516:X *670:A 4.01 
*END

*D_NET *140 0.000292418
*CONN
*I *671:A I *D sky130_fd_sc_hd__buf_2
*I *520:X O *D sky130_fd_sc_hd__a31o_1
*CAP
1 *671:A 0.000135655
2 *520:X 0.000135655
3 seg3[0] *671:A 2.11084e-05
*RES
1 *520:X *671:A 9.375 
*END

*D_NET *141 0.000781543
*CONN
*I *672:A I *D sky130_fd_sc_hd__buf_2
*I *523:X O *D sky130_fd_sc_hd__a31o_1
*CAP
1 *672:A 0.000266735
2 *523:X 0.000266735
3 *672:A *523:A1 7.21296e-06
4 *672:A *523:A2 0.000124007
5 *672:A *151:79 0
6 *520:B1 *672:A 0.000116853
*RES
1 *523:X *672:A 11.76 
*END

*D_NET *142 0.0011267
*CONN
*I *673:A I *D sky130_fd_sc_hd__buf_2
*I *525:X O *D sky130_fd_sc_hd__a31o_1
*CAP
1 *673:A 0.000347901
2 *525:X 0.000347901
3 *673:A *597:D 0.000182693
4 *525:B1 *673:A 0
5 *588:RESET_B *673:A 9.428e-05
6 *88:93 *673:A 0.000103966
7 *92:61 *673:A 4.99619e-05
*RES
1 *525:X *673:A 15.15 
*END

*D_NET *143 0.00115114
*CONN
*I *674:A I *D sky130_fd_sc_hd__buf_2
*I *527:X O *D sky130_fd_sc_hd__a31o_1
*CAP
1 *674:A 0.000533865
2 *527:X 0.000533865
3 *674:A *153:34 4.43871e-06
4 *674:A *153:84 7.89689e-05
*RES
1 *527:X *674:A 15.495 
*END

*D_NET *144 0.00142956
*CONN
*I *675:A I *D sky130_fd_sc_hd__buf_2
*I *529:X O *D sky130_fd_sc_hd__a31o_1
*CAP
1 *675:A 0.000519062
2 *529:X 0.000519062
3 *675:A *531:A1 0.000122337
4 *529:B1 *675:A 4.08913e-05
5 *532:A1 *675:A 8.8266e-05
6 *590:RESET_B *675:A 0.00013994
7 *96:54 *675:A 0
*RES
1 *529:X *675:A 15.615 
*END

*D_NET *145 0.00125755
*CONN
*I *676:A I *D sky130_fd_sc_hd__buf_2
*I *531:X O *D sky130_fd_sc_hd__a31o_1
*CAP
1 *676:A 0.000359936
2 *531:X 0.000359936
3 *529:B1 *676:A 0.000378519
4 *591:RESET_B *676:A 4.75576e-05
5 *621:A *676:A 9.3062e-06
6 *633:A *676:A 5.4003e-05
7 *650:A *676:A 4.82919e-05
*RES
1 *531:X *676:A 12.48 
*END

*D_NET *146 0.00743673
*CONN
*I *480:A2 I *D sky130_fd_sc_hd__a21o_1
*I *486:A2 I *D sky130_fd_sc_hd__a21o_1
*I *478:A2 I *D sky130_fd_sc_hd__a21o_1
*I *488:A2 I *D sky130_fd_sc_hd__a21o_1
*I *484:A2 I *D sky130_fd_sc_hd__a21o_1
*I *482:A2 I *D sky130_fd_sc_hd__a21o_1
*I *655:X O *D sky130_fd_sc_hd__clkbuf_2
*CAP
1 *480:A2 2.34769e-05
2 *486:A2 8.2171e-05
3 *478:A2 0.000538392
4 *488:A2 0.000477375
5 *484:A2 0
6 *482:A2 0.000164549
7 *655:X 4.92931e-05
8 *146:36 0.00101577
9 *146:34 0.000140282
10 *146:25 0.00018371
11 *146:12 0.0005147
12 *146:8 0.000297322
13 *478:A2 *486:B1 1.52184e-05
14 *478:A2 *156:34 4.70256e-05
15 *478:A2 *195:6 9.12081e-05
16 *480:A2 *147:182 7.57337e-05
17 *482:A2 *197:10 8.30794e-05
18 *482:A2 *198:12 3.0807e-05
19 *486:A2 *486:B1 4.82863e-05
20 *488:A2 *486:B1 5.20968e-05
21 *488:A2 *199:12 7.23602e-05
22 *488:A2 *200:10 7.82873e-05
23 *146:8 *156:52 0.000174125
24 *146:12 *156:52 0.000331155
25 *146:25 *484:B1 7.22354e-05
26 *146:25 *198:12 9.27255e-06
27 *479:A3 *480:A2 1.91597e-05
28 *484:A1 *146:12 0.000204449
29 *484:A1 *146:25 9.01939e-05
30 *486:A1 *486:A2 4.99619e-05
31 *487:A2 *488:A2 0
32 *490:C *146:12 0.000266605
33 *568:RESET_B *478:A2 0.000113927
34 *573:RESET_B *488:A2 4.24575e-05
35 *619:A *482:A2 0.000495101
36 *619:A *486:A2 3.27543e-05
37 *619:A *146:25 0.000423637
38 *619:A *146:34 2.96334e-05
39 *638:A *488:A2 0.000139245
40 *73:33 *478:A2 0
41 *73:33 *488:A2 0
42 *86:16 *482:A2 9.4087e-05
43 *86:99 *146:12 1.52945e-05
44 *86:116 *146:12 7.21296e-06
45 *92:126 *480:A2 4.82863e-05
46 *94:117 *146:8 0.000182089
47 *94:117 *146:12 0.00045105
48 *95:105 *488:A2 0
49 *95:118 *478:A2 0
50 *107:12 *488:A2 6.36578e-05
51 *138:14 *488:A2 0
*RES
1 *655:X *146:8 5.745 
2 *146:8 *146:12 9.755 
3 *146:12 *482:A2 6.805 
4 *146:12 *146:25 4.515 
5 *146:25 *484:A2 1.6 
6 *146:25 *146:34 1.155 
7 *146:34 *146:36 2 
8 *146:36 *488:A2 11.94 
9 *146:36 *478:A2 11.355 
10 *146:34 *486:A2 3.445 
11 *146:8 *480:A2 4.395 
*END

*D_NET *147 0.0188959
*CONN
*I *477:A2 I *D sky130_fd_sc_hd__a31o_1
*I *479:A2 I *D sky130_fd_sc_hd__a31o_1
*I *483:A2 I *D sky130_fd_sc_hd__a31o_1
*I *481:A2 I *D sky130_fd_sc_hd__a31o_1
*I *516:A2 I *D sky130_fd_sc_hd__a31o_1
*I *505:A2 I *D sky130_fd_sc_hd__a31o_1
*I *510:A2 I *D sky130_fd_sc_hd__a31o_1
*I *514:A2 I *D sky130_fd_sc_hd__a31o_1
*I *512:A2 I *D sky130_fd_sc_hd__a31o_1
*I *508:A2 I *D sky130_fd_sc_hd__a31o_1
*I *612:X O *D sky130_fd_sc_hd__buf_2
*CAP
1 *477:A2 0.000267364
2 *479:A2 0
3 *483:A2 0
4 *481:A2 1.61442e-05
5 *516:A2 0.00057387
6 *505:A2 0.000305343
7 *510:A2 9.67555e-05
8 *514:A2 0.00063332
9 *512:A2 0
10 *508:A2 8.944e-05
11 *612:X 0.000438103
12 *147:182 0.000772639
13 *147:125 0.000893514
14 *147:109 0.000724612
15 *147:107 0.00256291
16 *147:69 0.000680463
17 *147:63 0.00191489
18 *147:37 0.000855807
19 *147:29 0.000260194
20 *147:14 0.000565249
21 *477:A2 *477:A1 0.000342784
22 *477:A2 *479:A1 5.93004e-05
23 *477:A2 *480:B1 8.01175e-05
24 *481:A2 *481:A1 3.41653e-05
25 *481:A2 *679:A 0
26 *505:A2 *505:A1 0.000167534
27 *505:A2 *511:B1 7.18805e-05
28 *505:A2 *580:D 0
29 *508:A2 *507:B1 7.9642e-06
30 *510:A2 *510:A1 4.00541e-06
31 *510:A2 *511:B1 8.65905e-05
32 *514:A2 *516:A1 1.22762e-05
33 *514:A2 *518:A 0.000125166
34 *514:A2 *518:B 0
35 *514:A2 *150:53 0
36 *514:A2 *150:57 7.5431e-05
37 *514:A2 *154:53 0.000130007
38 *516:A2 *481:A1 2.24506e-05
39 *147:14 *469:A 8.92367e-05
40 *147:14 *507:B1 6.86367e-05
41 *147:14 *509:B1 0
42 *147:14 *150:35 6.17113e-06
43 *147:14 *150:43 3.99395e-05
44 *147:14 *154:47 0
45 *147:14 *208:16 1.34361e-05
46 *147:29 *150:43 0.000104234
47 *147:37 *518:A 0.000121023
48 *147:37 *518:C 0
49 *147:37 *150:43 0.000119221
50 *147:37 *150:47 0.000111054
51 *147:37 *150:53 3.09233e-05
52 *147:69 *511:B1 8.49205e-05
53 *147:69 *150:97 3.79945e-05
54 *147:107 *154:21 0.000131107
55 *147:109 *570:D 3.13459e-05
56 *147:109 *148:33 0.000136877
57 *147:109 *156:58 5.65627e-05
58 *147:125 *481:A1 4.87154e-05
59 *147:125 *534:A 6.78352e-05
60 *147:125 *679:A 3.00381e-05
61 *147:125 *680:A 9.14049e-05
62 *147:125 *681:A 0
63 *147:125 *148:33 9.50342e-06
64 *147:125 *148:49 0
65 *147:182 *480:B1 1.19928e-05
66 *147:182 *148:75 1.79483e-05
67 *147:182 *150:21 8.65961e-05
68 *147:182 *156:52 0
69 *147:182 *196:10 2.75229e-05
70 seg0[2] *516:A2 1.13341e-05
71 seg0[3] *147:125 0.00015639
72 seg2[5] *516:A2 6.66464e-05
73 *473:C *147:107 3.52139e-06
74 *475:A1 *147:107 4.51969e-05
75 *475:A1 *147:182 0
76 *475:A2 *147:182 0
77 *479:A3 *147:182 6.07575e-06
78 *479:B1 *477:A2 0.000245109
79 *479:B1 *147:182 0
80 *480:A2 *147:182 7.57337e-05
81 *481:A3 *147:125 4.99619e-05
82 *483:A3 *147:109 0.000752159
83 *483:A3 *147:125 1.14973e-05
84 *505:B1 *505:A2 6.47594e-05
85 *508:A3 *508:A2 2.49909e-05
86 *508:B1 *147:14 3.75785e-05
87 *510:B1 *147:69 4.35348e-05
88 *511:A1 *505:A2 0
89 *511:A2 *505:A2 5.2403e-05
90 *512:B1 *514:A2 1.62913e-05
91 *512:B1 *147:37 3.83194e-05
92 *514:B1 *514:A2 4.92062e-05
93 *516:B1 *516:A2 0.000294811
94 *582:RESET_B *514:A2 5.4256e-05
95 *583:RESET_B *514:A2 0
96 *592:RESET_B *147:107 3.90192e-05
97 *592:RESET_B *147:109 7.23533e-05
98 *592:RESET_B *147:182 9.84957e-05
99 *594:RESET_B *147:107 8.20041e-05
100 *605:A *147:69 5.4167e-05
101 *605:A *147:107 0.000196249
102 *606:A *147:109 8.08153e-06
103 *626:A *147:14 7.23533e-05
104 *629:A *147:69 2.49909e-05
105 *668:A *510:A2 5.30673e-05
106 *668:A *514:A2 4.41506e-05
107 *670:A *516:A2 3.40435e-05
108 *73:14 *147:14 0.000160314
109 *73:33 *147:182 1.7635e-05
110 *80:55 *508:A2 1.92187e-05
111 *80:55 *147:107 1.60986e-05
112 *85:14 *147:107 5.76026e-05
113 *86:16 *147:109 0
114 *86:20 *147:109 0.000107634
115 *86:26 *147:109 0.000229203
116 *86:99 *147:109 0
117 *86:116 *147:109 0
118 *91:149 *147:182 0.000177127
119 *92:126 *147:182 0.00013566
120 *93:41 *510:A2 0.000176532
121 *93:41 *147:69 0.000187281
122 *93:93 *147:109 0
123 *93:93 *147:182 0
124 *94:20 *514:A2 1.91597e-05
125 *94:20 *147:37 1.41165e-05
126 *94:37 *508:A2 4.81484e-06
127 *94:37 *147:14 7.88764e-05
128 *94:37 *147:29 3.33671e-05
129 *94:37 *147:37 4.49415e-05
130 *94:117 *147:182 1.03755e-05
131 *96:54 *147:182 7.96104e-06
132 *117:10 *514:A2 7.47145e-05
*RES
1 *612:X *147:14 11.8275 
2 *147:14 *508:A2 5.0775 
3 *147:14 *147:29 1.2525 
4 *147:29 *147:37 6.5 
5 *147:37 *512:A2 1.6 
6 *147:37 *514:A2 18.41 
7 *147:29 *147:63 2 
8 *147:63 *147:69 5.055 
9 *147:69 *510:A2 4.495 
10 *147:69 *505:A2 11.87 
11 *147:63 *147:107 25.71 
12 *147:107 *147:109 11.835 
13 *147:109 *147:125 8.57 
14 *147:125 *516:A2 12.31 
15 *147:125 *481:A2 2.41 
16 *147:109 *483:A2 3.6 
17 *147:107 *147:182 15.0111 
18 *147:182 *479:A2 1.6 
19 *147:182 *477:A2 7.705 
*END

*D_NET *148 0.0191165
*CONN
*I *483:A1 I *D sky130_fd_sc_hd__a31o_1
*I *493:A1 I *D sky130_fd_sc_hd__a31o_1
*I *491:A1 I *D sky130_fd_sc_hd__a31o_1
*I *495:A1 I *D sky130_fd_sc_hd__a31o_1
*I *497:A1 I *D sky130_fd_sc_hd__a31o_1
*I *477:A1 I *D sky130_fd_sc_hd__a31o_1
*I *479:A1 I *D sky130_fd_sc_hd__a31o_1
*I *485:A1 I *D sky130_fd_sc_hd__a31o_1
*I *487:A1 I *D sky130_fd_sc_hd__a31o_1
*I *481:A1 I *D sky130_fd_sc_hd__a31o_1
*I *613:X O *D sky130_fd_sc_hd__buf_2
*CAP
1 *483:A1 0
2 *493:A1 5.59112e-05
3 *491:A1 6.34216e-05
4 *495:A1 6.78771e-05
5 *497:A1 0.000368661
6 *477:A1 0.000287876
7 *479:A1 7.63236e-05
8 *485:A1 8.87516e-05
9 *487:A1 2.51456e-05
10 *481:A1 0.000192384
11 *613:X 0
12 *148:140 0.000542394
13 *148:136 0.000895475
14 *148:117 0.0021844
15 *148:79 0.000476686
16 *148:75 0.00196593
17 *148:62 0.000744302
18 *148:49 0.000570751
19 *148:33 0.000560297
20 *148:4 0.00039645
21 *477:A1 *678:A 6.02123e-05
22 *479:A1 *480:B1 2.15238e-05
23 *481:A1 *534:A 0.000312077
24 *481:A1 *679:A 5.39673e-05
25 *487:A1 *682:A 0
26 *491:A1 *491:A2 0.000149648
27 *493:A1 *493:A2 4.66108e-05
28 *495:A1 *491:A2 0.000201716
29 *495:A1 *152:32 9.50342e-06
30 *148:33 *570:D 9.37731e-05
31 *148:49 *680:A 0
32 *148:49 *681:A 0.000140791
33 *148:62 *489:D 0.000187401
34 *148:62 *681:A 0
35 *148:75 *489:D 2.15594e-05
36 *148:75 *490:A 5.4003e-05
37 *148:75 *490:B 9.24049e-05
38 *148:75 *196:10 7.01621e-05
39 *148:136 *504:B 0.000232612
40 seg0[2] *481:A1 0.000315527
41 seg0[3] *481:A1 7.47145e-05
42 seg0[5] *148:49 1.45272e-05
43 seg0[5] *148:62 3.52139e-06
44 *477:A2 *477:A1 0.000342784
45 *477:A2 *479:A1 5.93004e-05
46 *479:B1 *477:A1 8.40269e-05
47 *479:B1 *479:A1 0.000101842
48 *481:A2 *481:A1 3.41653e-05
49 *481:A3 *481:A1 0.000164576
50 *483:B1 *148:33 0
51 *483:B1 *148:49 0.000164874
52 *484:A1 *148:75 0.000107262
53 *487:A2 *148:62 0.00011998
54 *487:A2 *148:75 1.52184e-05
55 *487:B1 *148:62 3.67779e-05
56 *490:C *148:75 0
57 *492:A1 *491:A1 9.3062e-06
58 *493:A3 *493:A1 1.19928e-05
59 *497:B1 *497:A1 9.28507e-05
60 *501:A1 *148:136 8.23667e-05
61 *502:A1 *148:136 9.30717e-05
62 *504:C *148:136 0.000159957
63 *516:A2 *481:A1 2.24506e-05
64 *569:RESET_B *477:A1 0.000112123
65 *570:CLK *148:49 2.30292e-05
66 *573:CLK *148:49 2.05056e-05
67 *590:CLK *148:117 5.16348e-05
68 *593:D *148:136 0.000135373
69 *604:A *148:136 0
70 *604:A *148:140 0.000129694
71 *607:A *493:A1 0.00015639
72 *607:A *148:140 4.82863e-05
73 *664:A *148:140 0.000333521
74 *72:34 *148:136 9.37731e-05
75 *73:14 *497:A1 2.09579e-05
76 *73:33 *479:A1 4.61256e-05
77 *73:33 *497:A1 0.000259682
78 *73:33 *148:75 0.000514912
79 *73:33 *148:117 0.00204868
80 *91:110 *491:A1 4.77386e-05
81 *91:110 *495:A1 3.32497e-05
82 *94:37 *497:A1 5.4155e-06
83 *94:117 *148:75 0.000107755
84 *94:117 *148:117 0.000115335
85 *95:94 *485:A1 5.37074e-05
86 *95:105 *485:A1 4.21973e-05
87 *96:54 *479:A1 9.0444e-05
88 *96:87 *148:136 7.30277e-05
89 *96:119 *148:33 0.000192125
90 *96:119 *148:62 0.000245893
91 *104:12 *477:A1 4.82863e-05
92 *111:12 *495:A1 0.000116151
93 *127:12 *477:A1 0.00015639
94 *127:12 *148:79 0.000158965
95 *147:109 *148:33 0.000136877
96 *147:125 *481:A1 4.87154e-05
97 *147:125 *148:33 9.50342e-06
98 *147:125 *148:49 0
99 *147:182 *148:75 1.79483e-05
*RES
1 *613:X *148:4 1.6 
2 *148:4 *481:A1 13.415 
3 *148:4 *148:33 7.465 
4 *148:33 *148:49 9.865 
5 *148:49 *487:A1 2.215 
6 *148:49 *148:62 7.655 
7 *148:62 *485:A1 5.1 
8 *148:62 *148:75 12.09 
9 *148:75 *148:79 3.485 
10 *148:79 *479:A1 7.98875 
11 *148:79 *477:A1 11.675 
12 *148:75 *148:117 23.12 
13 *148:117 *497:A1 6.805 
14 *148:117 *148:136 14.35 
15 *148:136 *148:140 9.695 
16 *148:140 *495:A1 6 
17 *148:140 *491:A1 5.49 
18 *148:136 *493:A1 3.085 
19 *148:33 *483:A1 1.6 
*END

*D_NET *149 0.00111623
*CONN
*I *677:A I *D sky130_fd_sc_hd__buf_2
*I *477:X O *D sky130_fd_sc_hd__a31o_1
*CAP
1 *677:A 0.000282978
2 *477:X 0.000282978
3 *677:A *478:B1 0.000140912
4 *677:A *156:28 4.43871e-06
5 seg0[0] *677:A 7.0296e-05
6 *478:A1 *677:A 0.000320834
7 *568:RESET_B *677:A 1.37895e-05
8 *621:A *677:A 0
*RES
1 *477:X *677:A 13.665 
*END

*D_NET *150 0.012146
*CONN
*I *474:A I *D sky130_fd_sc_hd__nor4b_1
*I *473:D I *D sky130_fd_sc_hd__and4b_1
*I *508:A1 I *D sky130_fd_sc_hd__a31o_1
*I *505:A1 I *D sky130_fd_sc_hd__a31o_1
*I *510:A1 I *D sky130_fd_sc_hd__a31o_1
*I *512:A1 I *D sky130_fd_sc_hd__a31o_1
*I *468:A I *D sky130_fd_sc_hd__inv_2
*I *514:A1 I *D sky130_fd_sc_hd__a31o_1
*I *516:A1 I *D sky130_fd_sc_hd__a31o_1
*I *506:D I *D sky130_fd_sc_hd__and4bb_2
*I *614:X O *D sky130_fd_sc_hd__buf_2
*CAP
1 *474:A 0
2 *473:D 2.08101e-05
3 *508:A1 0
4 *505:A1 0.000285935
5 *510:A1 5.18928e-05
6 *512:A1 0
7 *468:A 6.75101e-05
8 *514:A1 0
9 *516:A1 0.000527957
10 *506:D 0.000216132
11 *614:X 0
12 *150:97 0.000551775
13 *150:57 0.000610938
14 *150:53 0.000482298
15 *150:47 0.00038828
16 *150:43 0.00051793
17 *150:35 0.00152102
18 *150:21 0.00169847
19 *150:15 0.000465413
20 *150:4 0.000277389
21 *505:A1 *209:10 0
22 *506:D *474:B 0.000273872
23 *516:A1 *548:A 8.77498e-05
24 *150:15 *474:B 0.000127373
25 *150:15 *156:52 0
26 *150:21 *474:B 9.50342e-06
27 *150:21 *156:52 0
28 *150:35 *154:29 0
29 *150:53 *518:C 0
30 *150:53 *546:A 1.22505e-05
31 *150:53 *583:D 4.94404e-05
32 *150:53 *154:53 5.88148e-05
33 *150:53 *154:78 0
34 seg0[6] *516:A1 4.25154e-05
35 seg2[4] *516:A1 0.000123592
36 seg2[5] *516:A1 4.82919e-05
37 *473:A_N *150:35 8.65905e-05
38 *473:C *150:35 3.23663e-05
39 *475:A2 *150:21 0
40 *475:B1 *150:21 4.60584e-05
41 *476:B1 *150:21 8.65961e-05
42 *505:A2 *505:A1 0.000167534
43 *505:A3 *505:A1 4.99619e-05
44 *505:B1 *505:A1 0.000116165
45 *507:A1 *505:A1 0.000344691
46 *508:B1 *150:35 1.88602e-05
47 *510:A2 *510:A1 4.00541e-06
48 *510:B1 *510:A1 8.65905e-05
49 *510:B1 *150:97 0.000199833
50 *511:A1 *505:A1 0
51 *511:A2 *505:A1 5.10587e-05
52 *512:A3 *150:47 1.01152e-05
53 *512:B1 *150:47 2.07184e-05
54 *512:B1 *150:53 0.000176647
55 *514:A2 *516:A1 1.22762e-05
56 *514:A2 *150:53 0
57 *514:A2 *150:57 7.5431e-05
58 *514:A3 *516:A1 5.53249e-06
59 *514:A3 *150:57 7.81954e-05
60 *516:B1 *516:A1 1.63175e-05
61 *584:RESET_B *516:A1 0.000125479
62 *584:RESET_B *150:53 0.000127424
63 *584:RESET_B *150:57 1.52776e-05
64 *594:D *150:35 0.000249341
65 *603:RESET_B *150:15 3.47837e-05
66 *605:A *150:43 2.39856e-05
67 *605:A *150:97 2.93678e-05
68 *629:A *150:97 3.57349e-05
69 *666:A *505:A1 4.66742e-05
70 *668:A *510:A1 8.65905e-05
71 *669:A *516:A1 0
72 *670:A *516:A1 0
73 *72:10 *468:A 4.66742e-05
74 *73:33 *506:D 8.73389e-06
75 *85:14 *150:43 0
76 *91:6 *150:35 2.75229e-05
77 *91:149 *150:35 6.1357e-05
78 *92:82 *150:35 0.000100162
79 *92:126 *150:21 0.00013551
80 *92:126 *150:35 0.000115407
81 *93:41 *505:A1 7.89032e-05
82 *93:41 *510:A1 2.30292e-05
83 *94:37 *150:47 3.51805e-05
84 *96:87 *150:35 0
85 *147:14 *150:35 6.17113e-06
86 *147:14 *150:43 3.99395e-05
87 *147:29 *150:43 0.000104234
88 *147:37 *150:43 0.000119221
89 *147:37 *150:47 0.000111054
90 *147:37 *150:53 3.09233e-05
91 *147:69 *150:97 3.79945e-05
92 *147:182 *150:21 8.65961e-05
*RES
1 *614:X *150:4 1.6 
2 *150:4 *506:D 4.465 
3 *150:4 *150:15 3.635 
4 *150:15 *150:21 8.82125 
5 *150:21 *150:35 12.8886 
6 *150:35 *150:43 6.155 
7 *150:43 *150:47 3.38 
8 *150:47 *150:53 7.38 
9 *150:53 *150:57 2.595 
10 *150:57 *516:A1 13.02 
11 *150:57 *514:A1 3.6 
12 *150:53 *468:A 4.74 
13 *150:47 *512:A1 3.6 
14 *150:43 *150:97 3.915 
15 *150:97 *510:A1 3.1 
16 *150:97 *505:A1 13.13 
17 *150:35 *508:A1 3.6 
18 *150:21 *473:D 1.96 
19 *150:15 *474:A 3.6 
*END

*D_NET *151 0.0100247
*CONN
*I *527:A1 I *D sky130_fd_sc_hd__a31o_1
*I *525:A1 I *D sky130_fd_sc_hd__a31o_1
*I *523:A1 I *D sky130_fd_sc_hd__a31o_1
*I *520:A1 I *D sky130_fd_sc_hd__a31o_1
*I *521:C I *D sky130_fd_sc_hd__and4b_2
*I *531:A1 I *D sky130_fd_sc_hd__a31o_1
*I *529:A1 I *D sky130_fd_sc_hd__a31o_1
*I *471:A_N I *D sky130_fd_sc_hd__and4bb_2
*I *472:B1 I *D sky130_fd_sc_hd__a21o_1
*I *615:X O *D sky130_fd_sc_hd__clkbuf_2
*CAP
1 *527:A1 0
2 *525:A1 0.000278537
3 *523:A1 0.000432188
4 *520:A1 0
5 *521:C 0
6 *531:A1 9.21895e-05
7 *529:A1 0
8 *471:A_N 0.000205672
9 *472:B1 5.47729e-05
10 *615:X 0.000195873
11 *151:79 0.000649819
12 *151:73 0.000637088
13 *151:69 0.000282643
14 *151:44 0.00033546
15 *151:31 0.000531467
16 *151:27 0.000244006
17 *151:23 0.000381708
18 *151:12 0.000329151
19 *471:A_N *152:6 4.82919e-05
20 *471:A_N *152:14 6.20192e-05
21 *472:B1 *472:A1 1.85674e-05
22 *472:B1 *157:47 0.000124895
23 *523:A1 *523:A2 0.000120955
24 *525:A1 *522:B1 4.99619e-05
25 *525:A1 *586:D 1.17409e-05
26 *151:12 *472:A1 0
27 *151:12 *526:B1 4.82863e-05
28 *151:23 *157:45 3.57349e-05
29 *151:23 *157:47 0.00015896
30 *151:27 *565:A 0.00038133
31 *151:44 *521:D 0.000173833
32 *151:69 *528:B1 4.99619e-05
33 *151:69 *157:43 9.0065e-05
34 *151:69 *157:45 0.000311288
35 *151:73 *153:34 4.72472e-05
36 *151:73 *153:36 8.53113e-06
37 *151:73 *153:84 0.000146261
38 *151:79 *520:A2 0.000141606
39 *151:79 *552:A 0
40 *151:79 *587:D 0.000298435
41 *151:79 *153:84 0.000418297
42 *471:C *471:A_N 0.000159684
43 *520:A3 *151:79 3.94692e-05
44 *520:B1 *523:A1 0.00037572
45 *520:B1 *151:79 0
46 *521:B *471:A_N 0.0001855
47 *522:A1 *525:A1 0.000120655
48 *522:A2 *525:A1 4.82863e-05
49 *524:A1 *523:A1 1.33293e-05
50 *527:B1 *151:69 4.82863e-05
51 *529:A3 *531:A1 8.49205e-05
52 *529:B1 *531:A1 0.000108602
53 *529:B1 *151:44 3.00381e-05
54 *602:D *472:B1 1.83847e-05
55 *608:A *151:12 8.09157e-05
56 *616:A *151:27 5.63429e-05
57 *616:A *151:31 3.05373e-05
58 *617:A *151:23 2.75145e-05
59 *672:A *523:A1 7.21296e-06
60 *672:A *151:79 0
61 *675:A *531:A1 0.000122337
62 *82:8 *151:27 0
63 *82:8 *151:31 0
64 *83:49 *151:31 1.44259e-05
65 *88:14 *151:69 0.000235568
66 *88:14 *151:73 9.70869e-05
67 *88:22 *151:27 7.21296e-06
68 *88:78 *151:73 3.90069e-05
69 *88:78 *151:79 0
70 *88:80 *525:A1 0.000184793
71 *91:32 *151:27 0.000338226
72 *93:87 *525:A1 1.85674e-05
73 *93:93 *151:12 0.00013521
*RES
1 *615:X *151:12 9.41 
2 *151:12 *472:B1 3.1 
3 *151:12 *151:23 1.83 
4 *151:23 *151:27 7.715 
5 *151:27 *151:31 3.125 
6 *151:31 *471:A_N 5.86 
7 *151:31 *151:44 4.95 
8 *151:44 *529:A1 1.6 
9 *151:44 *531:A1 4.12 
10 *151:27 *521:C 3.6 
11 *151:23 *151:69 4.71 
12 *151:69 *151:73 6.0575 
13 *151:73 *151:79 9.0575 
14 *151:79 *520:A1 1.6 
15 *151:79 *523:A1 13.445 
16 *151:73 *525:A1 8.895 
17 *151:69 *527:A1 1.6 
*END

*D_NET *152 0.0107261
*CONN
*I *474:B I *D sky130_fd_sc_hd__nor4b_1
*I *506:A_N I *D sky130_fd_sc_hd__and4bb_2
*I *471:D I *D sky130_fd_sc_hd__and4bb_2
*I *493:A2 I *D sky130_fd_sc_hd__a31o_1
*I *501:A2 I *D sky130_fd_sc_hd__a31o_1
*I *499:A2 I *D sky130_fd_sc_hd__a31o_1
*I *497:A2 I *D sky130_fd_sc_hd__a31o_1
*I *469:A I *D sky130_fd_sc_hd__inv_2
*I *491:A2 I *D sky130_fd_sc_hd__a31o_1
*I *495:A2 I *D sky130_fd_sc_hd__a31o_1
*I *616:X O *D sky130_fd_sc_hd__buf_2
*CAP
1 *474:B 0.000262374
2 *506:A_N 7.77117e-06
3 *471:D 0
4 *493:A2 0.00019432
5 *501:A2 2.09808e-05
6 *499:A2 0
7 *497:A2 0
8 *469:A 0.000380729
9 *491:A2 0.000220305
10 *495:A2 0
11 *616:X 2.6834e-05
12 *152:118 0.000361705
13 *152:54 0.000483838
14 *152:52 0.000185265
15 *152:32 0.000551523
16 *152:26 0.000608849
17 *152:24 0.00040871
18 *152:22 0.000678286
19 *152:14 0.000529428
20 *152:6 0.000356109
21 *152:22 *155:46 0.000201393
22 *152:24 *504:B 4.82919e-05
23 *471:A_N *152:6 4.82919e-05
24 *471:A_N *152:14 6.20192e-05
25 *471:B_N *152:14 1.91597e-05
26 *471:C *152:14 0.000161774
27 *474:C *474:B 0
28 *476:B1 *152:118 7.09921e-05
29 *491:A1 *491:A2 0.000149648
30 *493:A1 *493:A2 4.66108e-05
31 *493:A3 *493:A2 2.49909e-05
32 *493:B1 *493:A2 4.82919e-05
33 *495:A1 *491:A2 0.000201716
34 *495:A1 *152:32 9.50342e-06
35 *498:A1 *469:A 9.50342e-06
36 *498:A1 *152:52 0.000191202
37 *498:A1 *152:54 0.000172071
38 *499:B1 *152:26 7.32549e-05
39 *499:B1 *152:32 4.66108e-05
40 *499:B1 *152:52 9.1608e-05
41 *499:B1 *152:54 5.18317e-06
42 *500:A1 *152:54 0
43 *501:A1 *152:24 2.20014e-05
44 *501:A3 *152:24 1.05984e-05
45 *501:A3 *152:26 1.9872e-05
46 *501:B1 *152:24 0.000269103
47 *505:A3 *469:A 0
48 *506:C *474:B 4.82919e-05
49 *506:D *474:B 0.000273872
50 *578:RESET_B *152:26 8.51746e-05
51 *578:RESET_B *152:32 6.90876e-05
52 *593:D *152:24 4.94474e-05
53 *602:RESET_B *152:22 4.66108e-05
54 *604:A *493:A2 0.000464203
55 *607:A *493:A2 1.33285e-05
56 *614:A *474:B 0.000305296
57 *614:A *506:A_N 4.82863e-05
58 *625:A *152:22 0.000148084
59 *625:A *152:24 8.40269e-05
60 *664:A *152:26 8.51862e-05
61 *666:A *469:A 3.03775e-05
62 *73:33 *474:B 1.34503e-05
63 *74:12 *152:14 5.4155e-06
64 *74:67 *491:A2 0
65 *80:12 *474:B 3.83041e-05
66 *80:12 *506:A_N 4.99619e-05
67 *84:36 *152:22 0.000203755
68 *90:8 *152:22 4.71234e-05
69 *91:32 *152:22 0.000118081
70 *91:84 *152:32 0
71 *91:110 *152:32 0
72 *92:82 *493:A2 0.00048833
73 *93:12 *493:A2 1.26626e-05
74 *93:41 *469:A 0
75 *93:41 *491:A2 2.14129e-05
76 *93:41 *152:32 0.000311389
77 *94:37 *469:A 0
78 *113:6 *152:32 0.000158066
79 *147:14 *469:A 8.92367e-05
80 *150:15 *474:B 0.000127373
81 *150:21 *474:B 9.50342e-06
*RES
1 *616:X *152:6 2.05 
2 *152:6 *152:14 3.945 
3 *152:14 *152:22 10.645 
4 *152:22 *152:24 3.9 
5 *152:24 *152:26 3.555 
6 *152:26 *152:32 8.54 
7 *152:32 *495:A2 3.6 
8 *152:32 *491:A2 7.785 
9 *152:26 *152:52 4.4 
10 *152:52 *152:54 2.145 
11 *152:54 *469:A 9.27 
12 *152:54 *497:A2 3.6 
13 *152:52 *499:A2 3.6 
14 *152:24 *501:A2 1.96 
15 *152:22 *493:A2 12.56 
16 *152:14 *471:D 1.6 
17 *152:6 *152:118 5.635 
18 *152:118 *506:A_N 2.05 
19 *152:118 *474:B 12.545 
*END

*D_NET *153 0.00907931
*CONN
*I *523:A2 I *D sky130_fd_sc_hd__a31o_1
*I *520:A2 I *D sky130_fd_sc_hd__a31o_1
*I *527:A2 I *D sky130_fd_sc_hd__a31o_1
*I *531:A2 I *D sky130_fd_sc_hd__a31o_1
*I *521:D I *D sky130_fd_sc_hd__and4b_2
*I *529:A2 I *D sky130_fd_sc_hd__a31o_1
*I *525:A2 I *D sky130_fd_sc_hd__a31o_1
*I *476:B2 I *D sky130_fd_sc_hd__o2bb2a_1
*I *617:X O *D sky130_fd_sc_hd__clkbuf_2
*CAP
1 *523:A2 0.000184572
2 *520:A2 8.14609e-05
3 *527:A2 0
4 *531:A2 0.000236076
5 *521:D 0.000340216
6 *529:A2 5.65605e-05
7 *525:A2 0.00015039
8 *476:B2 0.000227457
9 *617:X 0
10 *153:84 0.000581747
11 *153:51 0.000576292
12 *153:36 0.000218291
13 *153:34 0.000236721
14 *153:28 0.000835528
15 *153:13 0.000628612
16 *153:4 0.000260856
17 *476:B2 *157:47 0.00035215
18 *153:13 *157:47 3.74161e-05
19 *153:28 *157:43 0.000230429
20 *153:28 *157:45 0.000347922
21 *153:28 *157:47 7.49327e-05
22 *153:36 *528:B1 0.000180379
23 *520:A3 *520:A2 0.000143266
24 *520:A3 *525:A2 0
25 *520:B1 *153:84 0
26 *523:A1 *523:A2 0.000120955
27 *524:A1 *523:A2 4.88721e-05
28 *525:B1 *525:A2 5.53249e-06
29 *527:A3 *153:34 9.50342e-06
30 *527:A3 *153:36 0.000406778
31 *529:B1 *521:D 4.82863e-05
32 *529:B1 *531:A2 0.000296167
33 *531:B1 *531:A2 2.78732e-05
34 *532:A1 *531:A2 1.94805e-05
35 *590:CLK *529:A2 3.67267e-05
36 *590:CLK *153:36 3.23391e-05
37 *672:A *523:A2 0.000124007
38 *674:A *153:34 4.43871e-06
39 *674:A *153:84 7.89689e-05
40 *82:8 *153:36 0
41 *82:66 *153:36 0
42 *91:32 *525:A2 0
43 *92:20 *520:A2 8.40213e-05
44 *92:20 *523:A2 0.000456198
45 *93:91 *525:A2 0.000161637
46 *93:93 *525:A2 0.000139245
47 *94:117 *529:A2 2.88945e-05
48 *94:117 *153:36 3.23391e-05
49 *121:16 *153:84 0
50 *124:10 *153:34 0
51 *151:44 *521:D 0.000173833
52 *151:73 *153:34 4.72472e-05
53 *151:73 *153:36 8.53113e-06
54 *151:73 *153:84 0.000146261
55 *151:79 *520:A2 0.000141606
56 *151:79 *153:84 0.000418297
*RES
1 *617:X *153:4 1.6 
2 *153:4 *476:B2 4.81 
3 *153:4 *153:13 0.45 
4 *153:13 *525:A2 9.02 
5 *153:13 *153:28 7.97 
6 *153:28 *153:34 1.425 
7 *153:34 *153:36 5.46 
8 *153:36 *529:A2 4.77 
9 *153:36 *153:51 2 
10 *153:51 *521:D 6.205 
11 *153:51 *531:A2 9.08 
12 *153:34 *527:A2 3.6 
13 *153:28 *153:84 10.01 
14 *153:84 *520:A2 8.03 
15 *153:84 *523:A2 6.805 
*END

*D_NET *154 0.011438
*CONN
*I *562:A I *D sky130_fd_sc_hd__inv_2
*I *558:A I *D sky130_fd_sc_hd__inv_2
*I *559:A I *D sky130_fd_sc_hd__inv_2
*I *545:A I *D sky130_fd_sc_hd__inv_2
*I *544:A I *D sky130_fd_sc_hd__inv_2
*I *546:A I *D sky130_fd_sc_hd__inv_2
*I *549:A I *D sky130_fd_sc_hd__inv_2
*I *548:A I *D sky130_fd_sc_hd__inv_2
*I *547:A I *D sky130_fd_sc_hd__inv_2
*I *563:A I *D sky130_fd_sc_hd__inv_2
*I *618:X O *D sky130_fd_sc_hd__buf_4
*CAP
1 *562:A 1.86282e-05
2 *558:A 0
3 *559:A 0
4 *545:A 0.000242393
5 *544:A 0
6 *546:A 0.000285406
7 *549:A 0
8 *548:A 0.000279743
9 *547:A 0.000236874
10 *563:A 0.000388634
11 *618:X 0
12 *154:78 0.000507865
13 *154:66 0.000689131
14 *154:53 0.000783608
15 *154:47 0.000903898
16 *154:35 0.00100921
17 *154:29 0.000566548
18 *154:21 0.000591766
19 *154:6 0.000647896
20 *154:4 1.86282e-05
21 *547:A *584:D 4.92935e-05
22 *548:A *585:D 4.20002e-05
23 *563:A *482:B1 0
24 *563:A *155:21 0
25 *154:29 *598:D 0.000358944
26 *154:35 *509:B1 7.27003e-05
27 *154:47 *509:B1 0.000159964
28 *154:47 *519:B 4.66108e-05
29 *154:47 *208:16 0.000154977
30 *154:53 *519:B 5.16418e-05
31 *154:66 *584:D 8.50577e-05
32 *154:78 *515:B1 0.000122797
33 *154:78 *585:D 0
34 seg0[6] *548:A 0.000115854
35 *473:C *154:21 0.000109377
36 *508:A3 *154:47 0.000101273
37 *508:B1 *154:47 2.30258e-05
38 *512:A3 *154:53 3.98712e-05
39 *512:B1 *154:53 5.43298e-05
40 *514:A2 *154:53 0.000130007
41 *514:B1 *548:A 0
42 *514:B1 *154:78 0.000127932
43 *515:A2 *154:78 0.000122797
44 *516:A1 *548:A 8.77498e-05
45 *516:A3 *548:A 0
46 *581:RESET_B *154:35 0.000161467
47 *582:RESET_B *546:A 0.00019234
48 *584:CLK *547:A 4.49534e-05
49 *584:RESET_B *548:A 0
50 *584:RESET_B *154:78 5.10957e-05
51 *585:RESET_B *548:A 9.16019e-05
52 *595:SET_B *154:29 1.19928e-05
53 *595:SET_B *154:35 3.64998e-06
54 *598:RESET_B *563:A 0
55 *606:A *562:A 0.0001249
56 *624:A *154:35 8.32704e-05
57 *626:A *154:47 2.20014e-05
58 *632:A *546:A 4.77757e-05
59 *666:A *154:53 0.000113797
60 *669:A *548:A 0
61 *73:33 *545:A 0.000142577
62 *80:12 *545:A 1.16578e-05
63 *84:10 *154:21 0.000101317
64 *85:33 *154:47 1.24708e-05
65 *85:35 *154:47 0.000110804
66 *92:82 *154:29 0
67 *93:41 *154:53 7.89119e-05
68 *94:37 *154:53 0.000209284
69 *95:10 *563:A 4.92096e-05
70 *95:62 *548:A 0
71 *96:54 *562:A 0.0001249
72 *117:10 *154:53 0.000219376
73 *147:14 *154:47 0
74 *147:107 *154:21 0.000131107
75 *150:35 *154:29 0
76 *150:53 *546:A 1.22505e-05
77 *150:53 *154:53 5.88148e-05
78 *150:53 *154:78 0
*RES
1 *618:X *154:4 1.6 
2 *154:4 *154:6 2 
3 *154:6 *563:A 9.57 
4 *154:6 *154:21 7.61 
5 *154:21 *154:29 10.36 
6 *154:29 *154:35 6.695 
7 *154:35 *154:47 10.67 
8 *154:47 *154:53 13.54 
9 *154:53 *547:A 4.735 
10 *154:53 *154:66 4.175 
11 *154:66 *154:78 7.055 
12 *154:78 *548:A 11.135 
13 *154:78 *549:A 1.6 
14 *154:66 *546:A 8.88 
15 *154:47 *544:A 1.6 
16 *154:35 *545:A 7.665 
17 *154:29 *559:A 1.6 
18 *154:21 *558:A 1.6 
19 *154:4 *562:A 2.74 
*END

*D_NET *155 0.0135946
*CONN
*I *539:A I *D sky130_fd_sc_hd__inv_2
*I *538:A I *D sky130_fd_sc_hd__inv_2
*I *557:A I *D sky130_fd_sc_hd__inv_2
*I *542:A I *D sky130_fd_sc_hd__inv_2
*I *540:A I *D sky130_fd_sc_hd__inv_2
*I *541:A I *D sky130_fd_sc_hd__inv_2
*I *543:A I *D sky130_fd_sc_hd__inv_2
*I *618:A I *D sky130_fd_sc_hd__buf_4
*I *564:A I *D sky130_fd_sc_hd__inv_2
*I *619:X O *D sky130_fd_sc_hd__clkbuf_4
*CAP
1 *539:A 0
2 *538:A 0.000404114
3 *557:A 0
4 *542:A 1.77753e-05
5 *540:A 2.08101e-05
6 *541:A 0.000157172
7 *543:A 8.13576e-05
8 *618:A 9.71884e-06
9 *564:A 0.00039255
10 *619:X 0.000136675
11 *155:113 0.000815362
12 *155:100 0.000531936
13 *155:71 0.000897253
14 *155:63 0.00141574
15 *155:57 0.000871481
16 *155:46 0.00069515
17 *155:21 0.000739337
18 *155:8 0.000717156
19 *538:A *504:A 0.00050011
20 *540:A *496:B1 0
21 *541:A *503:A 0
22 *155:46 *596:D 5.7653e-05
23 *155:71 *496:B1 0.000461047
24 *155:100 *561:A 0
25 *155:100 *596:D 0
26 *155:113 *504:A 0
27 *155:113 *561:A 0
28 *155:113 *588:D 0
29 seg1[5] *541:A 0.000106344
30 *473:C *155:46 9.14049e-05
31 *493:B1 *155:113 0
32 *516:B1 *564:A 0
33 *563:A *155:21 0
34 *570:RESET_B *564:A 0
35 *588:CLK *538:A 0
36 *593:CLK *155:63 2.69827e-05
37 *593:CLK *155:71 7.82329e-05
38 *593:D *155:63 4.76682e-05
39 *593:RESET_B *155:63 8.24372e-05
40 *593:RESET_B *155:100 0.000164686
41 *599:RESET_B *564:A 1.15688e-05
42 *600:RESET_B *564:A 3.00381e-05
43 *601:D *155:46 1.16578e-05
44 *602:RESET_B *155:46 0.000159957
45 *602:RESET_B *155:57 4.49498e-05
46 *602:RESET_B *155:100 2.97004e-06
47 *603:CLK *155:21 0.00013521
48 *603:CLK *155:46 0.000239309
49 *605:A *618:A 4.82919e-05
50 *628:A *155:71 0.00013056
51 *637:A *564:A 0
52 *640:A *564:A 0
53 *646:A *155:57 0
54 *646:A *155:100 0
55 *648:A *155:100 0.00011852
56 *661:A *540:A 0
57 *661:A *541:A 8.31173e-05
58 *661:A *155:71 5.80043e-05
59 *84:10 *155:46 0.000560842
60 *84:36 *155:46 0.00026028
61 *86:65 *564:A 9.54469e-05
62 *86:65 *155:21 0.000270574
63 *87:49 *541:A 5.43599e-05
64 *91:20 *155:46 0.000683379
65 *91:64 *543:A 8.8266e-05
66 *91:64 *155:46 7.49327e-05
67 *91:72 *543:A 0.0001249
68 *92:61 *155:113 0
69 *93:12 *155:100 0
70 *93:12 *155:113 0
71 *93:33 *155:63 4.78284e-05
72 *95:10 *564:A 0.000126679
73 *95:10 *155:8 4.82919e-05
74 *95:10 *155:21 3.09233e-05
75 *95:12 *564:A 4.44927e-05
76 *95:18 *564:A 0.000150149
77 *96:54 *618:A 4.82919e-05
78 *101:6 *155:63 9.60582e-07
79 *105:8 *564:A 8.8266e-05
80 *110:12 *155:113 0
81 *152:22 *155:46 0.000201393
*RES
1 *619:X *155:8 5.085 
2 *155:8 *564:A 11.58 
3 *155:8 *155:21 4.695 
4 *155:21 *618:A 4.05 
5 *155:21 *155:46 19.34 
6 *155:46 *543:A 3.43 
7 *155:46 *155:57 3.38 
8 *155:57 *155:63 9.71 
9 *155:63 *155:71 10.245 
10 *155:71 *541:A 9.065 
11 *155:71 *540:A 1.96 
12 *155:63 *542:A 1.96 
13 *155:57 *155:100 2.91 
14 *155:100 *557:A 3.6 
15 *155:100 *155:113 8.36 
16 *155:113 *538:A 13.46 
17 *155:113 *539:A 1.6 
*END

*D_NET *156 0.0128594
*CONN
*I *470:A I *D sky130_fd_sc_hd__inv_2
*I *551:A I *D sky130_fd_sc_hd__inv_2
*I *550:A I *D sky130_fd_sc_hd__inv_2
*I *533:A I *D sky130_fd_sc_hd__inv_2
*I *567:A I *D sky130_fd_sc_hd__inv_2
*I *556:A I *D sky130_fd_sc_hd__inv_2
*I *535:A I *D sky130_fd_sc_hd__inv_2
*I *534:A I *D sky130_fd_sc_hd__inv_2
*I *536:A I *D sky130_fd_sc_hd__inv_2
*I *537:A I *D sky130_fd_sc_hd__inv_2
*I *620:X O *D sky130_fd_sc_hd__buf_4
*CAP
1 *470:A 2.72151e-05
2 *551:A 5.87006e-05
3 *550:A 0
4 *533:A 0
5 *567:A 9.31605e-05
6 *556:A 0
7 *535:A 0
8 *534:A 0.000822705
9 *536:A 4.49856e-05
10 *537:A 7.99714e-05
11 *620:X 0
12 *156:115 0.000826816
13 *156:58 0.00103421
14 *156:52 0.000570894
15 *156:44 0.000651286
16 *156:40 0.000301107
17 *156:34 0.00139094
18 *156:28 0.000727533
19 *156:10 0.000242688
20 *156:6 0.000297596
21 *534:A *680:A 1.94636e-05
22 *156:44 *678:A 0.000163204
23 *156:52 *490:B 5.83121e-06
24 *156:115 *157:10 0
25 seg0[1] *156:34 0.000105806
26 seg0[2] *534:A 7.23602e-05
27 seg0[3] *534:A 5.46877e-05
28 seg0[4] *534:A 0
29 *478:A2 *156:34 4.70256e-05
30 *479:B1 *156:34 6.97256e-05
31 *481:A1 *534:A 0.000312077
32 *481:A3 *534:A 0.000148427
33 *483:A3 *534:A 0.000266404
34 *483:A3 *156:58 0.000252275
35 *524:A2 *156:115 0
36 *529:A3 *156:44 0.000275548
37 *530:A2 *156:115 0.000305065
38 *532:A1 *156:115 0.000156437
39 *568:CLK *156:52 8.65961e-05
40 *568:RESET_B *470:A 5.83121e-06
41 *568:RESET_B *156:34 5.05437e-05
42 *569:RESET_B *156:34 7.50884e-05
43 *571:RESET_B *534:A 9.30717e-05
44 *572:RESET_B *536:A 0.000114912
45 *572:RESET_B *537:A 0.000238919
46 *587:RESET_B *551:A 7.49327e-05
47 *587:RESET_B *156:115 0.000201508
48 *589:RESET_B *156:115 9.30787e-05
49 *590:RESET_B *156:115 0.000185405
50 *592:D *156:52 7.35729e-05
51 *592:RESET_B *156:52 0
52 *603:RESET_B *567:A 5.21046e-05
53 *606:A *156:58 0.000138551
54 *621:A *156:28 5.51158e-05
55 *621:A *156:34 0
56 *621:A *156:115 0
57 *638:A *537:A 4.99619e-05
58 *677:A *156:28 4.43871e-06
59 *73:33 *567:A 2.75145e-05
60 *82:42 *156:115 7.26551e-05
61 *86:116 *156:52 8.78813e-05
62 *93:93 *534:A 0
63 *93:93 *156:58 0
64 *94:117 *567:A 9.05377e-05
65 *94:117 *156:52 1.1561e-05
66 *95:118 *156:34 0.000185748
67 *96:54 *156:34 0
68 *96:54 *156:52 6.07328e-05
69 *96:54 *156:58 0.000160641
70 *96:54 *156:115 0
71 *104:12 *156:34 6.16894e-05
72 *122:10 *156:115 3.72916e-05
73 *124:10 *156:115 0
74 *127:12 *156:44 0.000230129
75 *138:14 *156:10 8.77073e-05
76 *138:23 *156:10 1.43521e-05
77 *138:23 *156:28 8.35126e-05
78 *146:8 *156:52 0.000174125
79 *146:12 *156:52 0.000331155
80 *147:109 *156:58 5.65627e-05
81 *147:125 *534:A 6.78352e-05
82 *147:182 *156:52 0
83 *150:15 *156:52 0
84 *150:21 *156:52 0
*RES
1 *620:X *156:6 3.6 
2 *156:6 *156:10 4.655 
3 *156:10 *537:A 3.775 
4 *156:10 *536:A 2.74 
5 *156:6 *156:28 5.93 
6 *156:28 *156:34 12.9125 
7 *156:34 *156:40 3.0275 
8 *156:40 *156:44 7.28 
9 *156:44 *156:52 10.415 
10 *156:52 *156:58 7.67 
11 *156:58 *534:A 22.975 
12 *156:58 *535:A 3.6 
13 *156:52 *556:A 1.6 
14 *156:44 *567:A 5.94 
15 *156:40 *533:A 1.6 
16 *156:34 *156:115 18.2825 
17 *156:115 *550:A 1.6 
18 *156:115 *551:A 2.74 
19 *156:28 *470:A 2.05 
*END

*D_NET *157 0.011733
*CONN
*I *560:A I *D sky130_fd_sc_hd__inv_2
*I *552:A I *D sky130_fd_sc_hd__inv_2
*I *565:A I *D sky130_fd_sc_hd__inv_2
*I *566:A I *D sky130_fd_sc_hd__inv_2
*I *561:A I *D sky130_fd_sc_hd__inv_2
*I *553:A I *D sky130_fd_sc_hd__inv_2
*I *555:A I *D sky130_fd_sc_hd__inv_2
*I *554:A I *D sky130_fd_sc_hd__inv_2
*I *621:X O *D sky130_fd_sc_hd__clkbuf_4
*CAP
1 *560:A 6.39746e-05
2 *552:A 0.000376536
3 *565:A 0.000117444
4 *566:A 0.000124728
5 *561:A 0.00035619
6 *553:A 0
7 *555:A 0.000289872
8 *554:A 7.79571e-05
9 *621:X 0
10 *157:90 0.000723168
11 *157:47 0.000627766
12 *157:45 0.000326622
13 *157:43 0.000691496
14 *157:34 0.000480161
15 *157:10 0.000547542
16 *157:4 0.000313364
17 *552:A *597:D 5.30673e-05
18 *554:A *530:B1 3.64998e-06
19 *555:A *530:B1 1.19928e-05
20 *560:A *522:B1 0.000124007
21 *561:A *588:D 1.01661e-05
22 *561:A *596:D 0.000284134
23 *566:A *472:A1 0
24 *157:47 *472:A1 0.000201508
25 *157:90 *522:B1 0.000333489
26 *157:90 *586:D 6.28765e-05
27 *157:90 *587:D 0
28 seg3[4] *555:A 6.24871e-05
29 *472:A2 *566:A 9.53428e-06
30 *472:B1 *157:47 0.000124895
31 *476:A1_N *561:A 3.90359e-05
32 *476:A1_N *566:A 0.000107401
33 *476:A2_N *566:A 4.66108e-05
34 *476:A2_N *157:47 6.07575e-06
35 *476:B2 *157:47 0.00035215
36 *520:A3 *552:A 6.95335e-05
37 *520:A3 *560:A 9.82856e-06
38 *520:A3 *157:90 6.08551e-05
39 *522:A2 *157:90 0
40 *527:B1 *157:43 0.000426195
41 *529:B1 *554:A 0.000196376
42 *529:B1 *555:A 0.000118081
43 *530:A2 *157:10 0.000122869
44 *588:CLK *561:A 8.8266e-05
45 *590:RESET_B *554:A 2.49909e-05
46 *591:RESET_B *555:A 7.04021e-05
47 *596:CLK *561:A 4.00541e-06
48 *597:RESET_B *561:A 0.000163985
49 *602:RESET_B *566:A 1.08758e-05
50 *616:A *565:A 0.000134509
51 *617:A *565:A 0.000206824
52 *621:A *157:10 0.000466565
53 *622:A *157:43 4.82919e-05
54 *642:A *552:A 5.72091e-05
55 *648:A *561:A 4.70343e-05
56 *650:A *555:A 7.40446e-05
57 *653:A *555:A 3.59194e-05
58 *82:42 *157:10 7.70938e-05
59 *82:66 *157:90 0
60 *88:14 *157:90 0.000208477
61 *88:78 *157:90 0.000129742
62 *91:32 *565:A 1.07797e-05
63 *92:12 *552:A 2.03775e-05
64 *92:12 *157:90 5.08304e-06
65 *92:20 *560:A 0.000122337
66 *93:93 *565:A 2.54606e-05
67 *125:10 *555:A 7.89689e-05
68 *151:23 *157:45 3.57349e-05
69 *151:23 *157:47 0.00015896
70 *151:27 *565:A 0.00038133
71 *151:69 *157:43 9.0065e-05
72 *151:69 *157:45 0.000311288
73 *151:79 *552:A 0
74 *153:13 *157:47 3.74161e-05
75 *153:28 *157:43 0.000230429
76 *153:28 *157:45 0.000347922
77 *153:28 *157:47 7.49327e-05
78 *155:100 *561:A 0
79 *155:113 *561:A 0
80 *156:115 *157:10 0
*RES
1 *621:X *157:4 1.6 
2 *157:4 *157:10 9.46 
3 *157:10 *554:A 3.43 
4 *157:10 *555:A 11.615 
5 *157:4 *157:34 2.1 
6 *157:34 *553:A 1.6 
7 *157:34 *157:43 7.275 
8 *157:43 *157:45 3.21 
9 *157:45 *157:47 5.28 
10 *157:47 *561:A 13.61 
11 *157:47 *566:A 4.315 
12 *157:45 *565:A 10.295 
13 *157:43 *157:90 9.6275 
14 *157:90 *552:A 10.3725 
15 *157:90 *560:A 5.4225 
*END

*D_NET *158 0.000864381
*CONN
*I *678:A I *D sky130_fd_sc_hd__buf_2
*I *479:X O *D sky130_fd_sc_hd__a31o_1
*CAP
1 *678:A 0.000114252
2 *479:X 0.000114252
3 *477:A1 *678:A 6.02123e-05
4 *529:A3 *678:A 5.57182e-05
5 *96:54 *678:A 0.000155234
6 *127:12 *678:A 0.000201508
7 *156:44 *678:A 0.000163204
*RES
1 *479:X *678:A 11.28 
*END

*D_NET *159 0.000971803
*CONN
*I *528:B1 I *D sky130_fd_sc_hd__a21o_1
*I *622:X O *D sky130_fd_sc_hd__dlygate4sd3_1
*CAP
1 *528:B1 0.000317023
2 *622:X 0.000317023
3 *528:B1 *589:D 0
4 *527:B1 *528:B1 0.000107415
5 *82:8 *528:B1 0
6 *82:66 *528:B1 0
7 *151:69 *528:B1 4.99619e-05
8 *153:36 *528:B1 0.000180379
*RES
1 *622:X *528:B1 13.41 
*END

*D_NET *160 0.000413479
*CONN
*I *532:B1 I *D sky130_fd_sc_hd__a21o_1
*I *633:X O *D sky130_fd_sc_hd__dlygate4sd3_1
*CAP
1 *532:B1 0.000120694
2 *633:X 0.000120694
3 *524:A2 *532:B1 4.82919e-05
4 *532:A1 *532:B1 2.55502e-05
5 *532:A2 *532:B1 4.82863e-05
6 *589:RESET_B *532:B1 4.99619e-05
*RES
1 *633:X *532:B1 5.495 
*END

*D_NET *161 0.000536357
*CONN
*I *524:B1 I *D sky130_fd_sc_hd__a21o_1
*I *644:X O *D sky130_fd_sc_hd__dlygate4sd3_1
*CAP
1 *524:B1 0.000189536
2 *644:X 0.000189536
3 *523:B1 *524:B1 4.11194e-05
4 *524:A2 *524:B1 0.000116165
*RES
1 *644:X *524:B1 10.065 
*END

*D_NET *162 0.00173416
*CONN
*I *522:B1 I *D sky130_fd_sc_hd__a21o_1
*I *647:X O *D sky130_fd_sc_hd__dlygate4sd3_1
*CAP
1 *522:B1 0.000232544
2 *647:X 0.000232544
3 *522:B1 *526:B1 0
4 *522:B1 *587:D 0.000158066
5 *522:A2 *522:B1 2.97004e-06
6 *525:A1 *522:B1 4.99619e-05
7 *560:A *522:B1 0.000124007
8 *596:RESET_B *522:B1 0.000250364
9 *649:A *522:B1 2.49909e-05
10 *88:80 *522:B1 4.82863e-05
11 *92:8 *522:B1 2.10433e-05
12 *92:12 *522:B1 3.39944e-05
13 *92:20 *522:B1 9.41957e-05
14 *92:61 *522:B1 0.000127705
15 *157:90 *522:B1 0.000333489
*RES
1 *647:X *522:B1 14.79 
*END

*D_NET *163 0.00067631
*CONN
*I *472:A1 I *D sky130_fd_sc_hd__a21o_1
*I *648:X O *D sky130_fd_sc_hd__dlygate4sd3_1
*CAP
1 *472:A1 0.000116802
2 *648:X 0.000116802
3 *472:A2 *472:A1 0.000104799
4 *472:B1 *472:A1 1.85674e-05
5 *566:A *472:A1 0
6 *615:A *472:A1 0.000117832
7 *151:12 *472:A1 0
8 *157:47 *472:A1 0.000201508
*RES
1 *648:X *472:A1 10.77 
*END

*D_NET *164 0.00158212
*CONN
*I *526:B1 I *D sky130_fd_sc_hd__a21o_1
*I *649:X O *D sky130_fd_sc_hd__dlygate4sd3_1
*CAP
1 *526:B1 0.000363645
2 *649:X 0.000363645
3 *520:A3 *526:B1 0.000179015
4 *522:A2 *526:B1 8.26614e-05
5 *522:B1 *526:B1 0
6 *525:B1 *526:B1 7.24779e-05
7 *526:A2 *526:B1 0.000197264
8 *608:A *526:B1 6.38722e-05
9 *82:66 *526:B1 1.52184e-05
10 *91:32 *526:B1 0.000137571
11 *92:12 *526:B1 5.84618e-05
12 *92:61 *526:B1 0
13 *151:12 *526:B1 4.82863e-05
*RES
1 *649:X *526:B1 16.14 
*END

*D_NET *165 0.000814503
*CONN
*I *530:B1 I *D sky130_fd_sc_hd__a21o_1
*I *650:X O *D sky130_fd_sc_hd__dlygate4sd3_1
*CAP
1 *530:B1 0.000127606
2 *650:X 0.000127606
3 *554:A *530:B1 3.64998e-06
4 *555:A *530:B1 1.19928e-05
5 *591:RESET_B *530:B1 0.000249921
6 *621:A *530:B1 0.000293726
*RES
1 *650:X *530:B1 11.07 
*END

*D_NET *166 0.000785207
*CONN
*I *480:B1 I *D sky130_fd_sc_hd__a21o_1
*I *651:X O *D sky130_fd_sc_hd__dlygate4sd3_1
*CAP
1 *480:B1 0.000184345
2 *651:X 0.000184345
3 *480:B1 *196:10 4.82919e-05
4 *477:A2 *480:B1 8.01175e-05
5 *479:A1 *480:B1 2.15238e-05
6 *479:A3 *480:B1 0.000215818
7 *479:B1 *480:B1 3.87722e-05
8 *147:182 *480:B1 1.19928e-05
*RES
1 *651:X *480:B1 7.865 
*END

*D_NET *167 0.00013901
*CONN
*I *679:A I *D sky130_fd_sc_hd__buf_2
*I *481:X O *D sky130_fd_sc_hd__a31o_1
*CAP
1 *679:A 2.75021e-05
2 *481:X 2.75021e-05
3 *481:A1 *679:A 5.39673e-05
4 *481:A2 *679:A 0
5 *147:125 *679:A 3.00381e-05
*RES
1 *481:X *679:A 4.01 
*END

*D_NET *168 0.000204992
*CONN
*I *494:B1 I *D sky130_fd_sc_hd__a21o_1
*I *652:X O *D sky130_fd_sc_hd__dlygate4sd3_1
*CAP
1 *494:B1 4.56792e-05
2 *652:X 4.56792e-05
3 *494:B1 *202:8 4.94474e-05
4 *494:A1 *494:B1 6.41861e-05
*RES
1 *652:X *494:B1 4.34 
*END

*D_NET *169 0.000476095
*CONN
*I *486:B1 I *D sky130_fd_sc_hd__a21o_1
*I *623:X O *D sky130_fd_sc_hd__dlygate4sd3_1
*CAP
1 *486:B1 0.000144525
2 *623:X 0.000144525
3 *478:A2 *486:B1 1.52184e-05
4 *486:A2 *486:B1 4.82863e-05
5 *488:A2 *486:B1 5.20968e-05
6 *619:A *486:B1 1.83756e-05
7 *95:105 *486:B1 5.30673e-05
8 *95:118 *486:B1 0
*RES
1 *623:X *486:B1 9.825 
*END

*D_NET *170 0.000683162
*CONN
*I *509:B1 I *D sky130_fd_sc_hd__a21o_1
*I *624:X O *D sky130_fd_sc_hd__dlygate4sd3_1
*CAP
1 *509:B1 0.000188568
2 *624:X 0.000188568
3 *508:B1 *509:B1 0
4 *581:RESET_B *509:B1 1.13047e-05
5 *624:A *509:B1 4.77757e-05
6 *85:33 *509:B1 1.42807e-05
7 *147:14 *509:B1 0
8 *154:35 *509:B1 7.27003e-05
9 *154:47 *509:B1 0.000159964
*RES
1 *624:X *509:B1 10.92 
*END

*D_NET *171 0.000785283
*CONN
*I *502:B1 I *D sky130_fd_sc_hd__a21o_1
*I *625:X O *D sky130_fd_sc_hd__dlygate4sd3_1
*CAP
1 *502:B1 0.000198803
2 *625:X 0.000198803
3 *604:A *502:B1 9.54469e-05
4 *74:12 *502:B1 0.000162311
5 *74:18 *502:B1 6.7692e-05
6 *74:33 *502:B1 1.20052e-05
7 *96:87 *502:B1 5.02217e-05
*RES
1 *625:X *502:B1 11.205 
*END

*D_NET *172 0.00085353
*CONN
*I *507:B1 I *D sky130_fd_sc_hd__a21o_1
*I *626:X O *D sky130_fd_sc_hd__dlygate4sd3_1
*CAP
1 *507:B1 0.000190936
2 *626:X 0.000190936
3 *508:A2 *507:B1 7.9642e-06
4 *511:A2 *507:B1 0.000101069
5 *80:55 *507:B1 0.000158066
6 *94:37 *507:B1 0.000135923
7 *147:14 *507:B1 6.86367e-05
*RES
1 *626:X *507:B1 11.715 
*END

*D_NET *173 0.000208491
*CONN
*I *500:B1 I *D sky130_fd_sc_hd__a21o_1
*I *627:X O *D sky130_fd_sc_hd__dlygate4sd3_1
*CAP
1 *500:B1 6.31014e-05
2 *627:X 6.31014e-05
3 *500:B1 *205:12 3.62197e-05
4 *500:B1 *206:14 4.05358e-05
5 *500:A1 *500:B1 5.53249e-06
6 *501:A1 *500:B1 0
*RES
1 *627:X *500:B1 8.58 
*END

*D_NET *174 0.00098875
*CONN
*I *496:B1 I *D sky130_fd_sc_hd__a21o_1
*I *628:X O *D sky130_fd_sc_hd__dlygate4sd3_1
*CAP
1 *496:B1 0.0001165
2 *628:X 0.0001165
3 *496:A1 *496:B1 9.81565e-05
4 *540:A *496:B1 0
5 *628:A *496:B1 0.000124007
6 *661:A *496:B1 3.23663e-05
7 *93:33 *496:B1 4.01731e-05
8 *155:71 *496:B1 0.000461047
*RES
1 *628:X *496:B1 7.805 
*END

*D_NET *175 0.000667918
*CONN
*I *511:B1 I *D sky130_fd_sc_hd__a21o_1
*I *629:X O *D sky130_fd_sc_hd__dlygate4sd3_1
*CAP
1 *511:B1 0.000174213
2 *629:X 0.000174213
3 *505:A2 *511:B1 7.18805e-05
4 *510:A2 *511:B1 8.65905e-05
5 *511:A1 *511:B1 5.03838e-05
6 *594:D *511:B1 1.7635e-05
7 *667:A *511:B1 8.08153e-06
8 *147:69 *511:B1 8.49205e-05
*RES
1 *629:X *511:B1 10.32 
*END

*D_NET *176 0.000996661
*CONN
*I *515:B1 I *D sky130_fd_sc_hd__a21o_1
*I *630:X O *D sky130_fd_sc_hd__dlygate4sd3_1
*CAP
1 *515:B1 0.000140463
2 *630:X 0.000140463
3 *515:B1 *517:B1 5.6458e-05
4 *515:B1 *518:D 7.06865e-05
5 *515:B1 *585:D 4.9968e-05
6 *515:A2 *515:B1 0.000109382
7 *72:10 *515:B1 0.000306443
8 *154:78 *515:B1 0.000122797
*RES
1 *630:X *515:B1 11.805 
*END

*D_NET *177 0.000497938
*CONN
*I *492:B1 I *D sky130_fd_sc_hd__a21o_1
*I *631:X O *D sky130_fd_sc_hd__dlygate4sd3_1
*CAP
1 *492:B1 0.000168929
2 *631:X 0.000168929
3 *492:A2 *492:B1 8.60527e-05
4 *109:10 *492:B1 7.4027e-05
*RES
1 *631:X *492:B1 10.62 
*END

*D_NET *178 0.000542895
*CONN
*I *680:A I *D sky130_fd_sc_hd__buf_2
*I *483:X O *D sky130_fd_sc_hd__a31o_1
*CAP
1 *680:A 0.000161699
2 *483:X 0.000161699
3 seg0[4] *680:A 5.56629e-05
4 *483:A3 *680:A 2.75145e-05
5 *534:A *680:A 1.94636e-05
6 *570:CLK *680:A 2.54522e-05
7 *147:125 *680:A 9.14049e-05
8 *148:49 *680:A 0
*RES
1 *483:X *680:A 9.975 
*END

*D_NET *179 0.000443924
*CONN
*I *513:B1 I *D sky130_fd_sc_hd__a21o_1
*I *632:X O *D sky130_fd_sc_hd__dlygate4sd3_1
*CAP
1 *513:B1 0.000107874
2 *632:X 0.000107874
3 *513:B1 *518:D 0.000139238
4 *513:B1 *210:6 3.64998e-06
5 *94:20 *513:B1 8.52883e-05
*RES
1 *632:X *513:B1 9.63 
*END

*D_NET *180 0.00024626
*CONN
*I *484:B1 I *D sky130_fd_sc_hd__a21o_1
*I *634:X O *D sky130_fd_sc_hd__dlygate4sd3_1
*CAP
1 *484:B1 2.50091e-05
2 *634:X 2.50091e-05
3 *484:A1 *484:B1 0.000124007
4 *146:25 *484:B1 7.22354e-05
*RES
1 *634:X *484:B1 4.34 
*END

*D_NET *181 0.000528594
*CONN
*I *478:B1 I *D sky130_fd_sc_hd__a21o_1
*I *635:X O *D sky130_fd_sc_hd__dlygate4sd3_1
*CAP
1 *478:B1 0.000155685
2 *635:X 0.000155685
3 seg0[0] *478:B1 7.63125e-05
4 *677:A *478:B1 0.000140912
*RES
1 *635:X *478:B1 9.975 
*END

*D_NET *182 0.000785646
*CONN
*I *498:B1 I *D sky130_fd_sc_hd__a21o_1
*I *636:X O *D sky130_fd_sc_hd__dlygate4sd3_1
*CAP
1 *498:B1 0.000237897
2 *636:X 0.000237897
3 *498:B1 *503:A 4.82863e-05
4 *498:B1 *503:B 0.000107415
5 *498:B1 *503:C 2.08699e-05
6 *498:B1 *503:D 0.000124007
7 *498:A1 *498:B1 9.27255e-06
*RES
1 *636:X *498:B1 7.46 
*END

*D_NET *183 0.000729286
*CONN
*I *517:B1 I *D sky130_fd_sc_hd__a21o_1
*I *637:X O *D sky130_fd_sc_hd__dlygate4sd3_1
*CAP
1 *517:B1 0.000265866
2 *637:X 0.000265866
3 *517:B1 *585:D 7.26457e-06
4 *515:B1 *517:B1 5.6458e-05
5 *585:CLK *517:B1 1.82623e-05
6 *630:A *517:B1 8.81641e-05
7 *85:117 *517:B1 2.74056e-05
*RES
1 *637:X *517:B1 11.01 
*END

*D_NET *184 0.000410555
*CONN
*I *488:B1 I *D sky130_fd_sc_hd__a21o_1
*I *638:X O *D sky130_fd_sc_hd__dlygate4sd3_1
*CAP
1 *488:B1 0.000144236
2 *638:X 0.000144236
3 *488:A1 *488:B1 5.53249e-06
4 *572:RESET_B *488:B1 8.65961e-05
5 *638:A *488:B1 0
6 *654:A *488:B1 0
7 *138:14 *488:B1 2.99542e-05
*RES
1 *638:X *488:B1 9.375 
*END

*D_NET *185 0.00220344
*CONN
*I *596:D I *D sky130_fd_sc_hd__dfrtp_4
*I *639:X O *D sky130_fd_sc_hd__dlygate4sd3_1
*CAP
1 *596:D 0.000394985
2 *639:X 0.000394985
3 *596:D *588:D 0.000267485
4 *561:A *596:D 0.000284134
5 *588:CLK *596:D 2.05056e-05
6 *597:RESET_B *596:D 0.000163985
7 *601:CLK *596:D 5.83121e-06
8 *601:D *596:D 0.000101523
9 *602:RESET_B *596:D 1.86911e-05
10 *84:36 *596:D 0.000446562
11 *88:97 *596:D 4.7101e-05
12 *155:46 *596:D 5.7653e-05
13 *155:100 *596:D 0
*RES
1 *639:X *596:D 18.57 
*END

*D_NET *186 0.000500778
*CONN
*I *482:B1 I *D sky130_fd_sc_hd__a21o_1
*I *640:X O *D sky130_fd_sc_hd__dlygate4sd3_1
*CAP
1 *482:B1 0.000170898
2 *640:X 0.000170898
3 *481:A3 *482:B1 0.000158982
4 *563:A *482:B1 0
*RES
1 *640:X *482:B1 10.62 
*END

*D_NET *187 0.000393325
*CONN
*I *599:D I *D sky130_fd_sc_hd__dfrtp_4
*I *641:X O *D sky130_fd_sc_hd__dlygate4sd3_1
*CAP
1 *599:D 7.16168e-05
2 *641:X 7.16168e-05
3 *72:34 *599:D 0.000118513
4 *80:20 *599:D 0.000120186
5 *94:12 *599:D 1.1392e-05
*RES
1 *641:X *599:D 9.03 
*END

*D_NET *188 0.00120741
*CONN
*I *597:D I *D sky130_fd_sc_hd__dfrtp_4
*I *642:X O *D sky130_fd_sc_hd__dlygate4sd3_1
*CAP
1 *597:D 0.000485826
2 *642:X 0.000485826
3 *597:D *588:D 0
4 *552:A *597:D 5.30673e-05
5 *588:CLK *597:D 0
6 *673:A *597:D 0.000182693
7 *88:93 *597:D 0
*RES
1 *642:X *597:D 15.78 
*END

*D_NET *189 0.0012396
*CONN
*I *681:A I *D sky130_fd_sc_hd__buf_2
*I *485:X O *D sky130_fd_sc_hd__a31o_1
*CAP
1 *681:A 0.0002917
2 *485:X 0.0002917
3 *681:A *489:D 0.000178488
4 seg0[4] *681:A 0
5 seg0[5] *681:A 5.83121e-06
6 *483:B1 *681:A 0.000175848
7 *487:B1 *681:A 6.47516e-05
8 *490:C *681:A 4.82863e-05
9 *95:94 *681:A 4.22057e-05
10 *96:119 *681:A 0
11 *147:125 *681:A 0
12 *148:49 *681:A 0.000140791
13 *148:62 *681:A 0
*RES
1 *485:X *681:A 14.505 
*END

*D_NET *190 0.000782124
*CONN
*I *600:D I *D sky130_fd_sc_hd__dfrtp_4
*I *643:X O *D sky130_fd_sc_hd__dlygate4sd3_1
*CAP
1 *600:D 0.000332986
2 *643:X 0.000332986
3 *637:A *600:D 0
4 *96:32 *600:D 0.000116151
*RES
1 *643:X *600:D 11.445 
*END

*D_NET *191 0.00152841
*CONN
*I *595:D I *D sky130_fd_sc_hd__dfstp_2
*I *645:X O *D sky130_fd_sc_hd__dlygate4sd3_1
*CAP
1 *595:D 0.000351494
2 *645:X 0.000351494
3 *605:A *595:D 0.000230925
4 *72:34 *595:D 0.000289896
5 *80:12 *595:D 8.53113e-06
6 *80:14 *595:D 0.000114492
7 *80:16 *595:D 0.000181575
*RES
1 *645:X *595:D 14.175 
*END

*D_NET *192 0.00211674
*CONN
*I *598:D I *D sky130_fd_sc_hd__dfrtp_4
*I *646:X O *D sky130_fd_sc_hd__dlygate4sd3_1
*CAP
1 *598:D 0.000661067
2 *646:X 0.000661067
3 *603:CLK *598:D 0.000256925
4 *646:A *598:D 4.99619e-05
5 *74:12 *598:D 8.95933e-05
6 *86:65 *598:D 2.24336e-05
7 *91:20 *598:D 1.67513e-05
8 *92:82 *598:D 0
9 *154:29 *598:D 0.000358944
*RES
1 *646:X *598:D 21.12 
*END

*D_NET *193 0.000111493
*CONN
*I *682:A I *D sky130_fd_sc_hd__buf_2
*I *487:X O *D sky130_fd_sc_hd__a31o_1
*CAP
1 *682:A 3.87247e-05
2 *487:X 3.87247e-05
3 *487:A1 *682:A 0
4 *488:A1 *682:A 3.40435e-05
*RES
1 *487:X *682:A 4.01 
*END

*D_NET *194 0.00120334
*CONN
*I *683:A I *D sky130_fd_sc_hd__buf_2
*I *491:X O *D sky130_fd_sc_hd__a31o_1
*CAP
1 *683:A 0.000567549
2 *491:X 0.000567549
3 *74:67 *683:A 5.36384e-06
4 *87:47 *683:A 6.28765e-05
*RES
1 *491:X *683:A 14.115 
*END

*D_NET *195 0.00159412
*CONN
*I *568:D I *D sky130_fd_sc_hd__dfrtp_1
*I *490:A I *D sky130_fd_sc_hd__and3_1
*I *478:X O *D sky130_fd_sc_hd__a21o_1
*CAP
1 *568:D 0
2 *490:A 6.75685e-05
3 *478:X 0.000462802
4 *195:6 0.00053037
5 *478:A2 *195:6 9.12081e-05
6 *568:CLK *490:A 2.75229e-05
7 *568:RESET_B *195:6 6.23295e-05
8 *73:33 *490:A 5.23362e-05
9 *96:54 *490:A 0.000160641
10 *96:54 *195:6 5.78185e-05
11 *103:10 *195:6 2.75229e-05
12 *148:75 *490:A 5.4003e-05
*RES
1 *478:X *195:6 9.295 
2 *195:6 *490:A 7.7 
3 *195:6 *568:D 1.6 
*END

*D_NET *196 0.00100538
*CONN
*I *569:D I *D sky130_fd_sc_hd__dfrtp_1
*I *490:B I *D sky130_fd_sc_hd__and3_1
*I *480:X O *D sky130_fd_sc_hd__a21o_1
*CAP
1 *569:D 0
2 *490:B 0.000140943
3 *480:X 6.59292e-05
4 *196:10 0.000206873
5 *480:B1 *196:10 4.82919e-05
6 *568:CLK *490:B 5.64829e-05
7 *94:117 *490:B 0.000164679
8 *94:117 *196:10 0.000126255
9 *147:182 *196:10 2.75229e-05
10 *148:75 *490:B 9.24049e-05
11 *148:75 *196:10 7.01621e-05
12 *156:52 *490:B 5.83121e-06
*RES
1 *480:X *196:10 5.685 
2 *196:10 *490:B 6.63 
3 *196:10 *569:D 3.6 
*END

*D_NET *197 0.00274319
*CONN
*I *489:A I *D sky130_fd_sc_hd__and4_1
*I *570:D I *D sky130_fd_sc_hd__dfrtp_1
*I *482:X O *D sky130_fd_sc_hd__a21o_1
*CAP
1 *489:A 1.8095e-05
2 *570:D 0.000337004
3 *482:X 0.000315377
4 *197:10 0.000670476
5 *489:A *489:B 3.66286e-05
6 *489:A *571:D 4.82919e-05
7 *570:D *572:D 9.86611e-05
8 *197:10 *572:D 1.07797e-05
9 *197:10 *198:12 0.000141606
10 *482:A2 *197:10 8.30794e-05
11 *570:CLK *570:D 0.000229541
12 *571:RESET_B *197:10 4.66108e-05
13 *619:A *197:10 9.00515e-05
14 *634:A *197:10 0
15 *86:16 *197:10 4.66108e-05
16 *86:20 *197:10 9.37731e-05
17 *86:26 *570:D 0.000139245
18 *86:26 *197:10 8.82978e-05
19 *86:39 *570:D 3.90266e-05
20 *95:94 *489:A 8.49205e-05
21 *147:109 *570:D 3.13459e-05
22 *148:33 *570:D 9.37731e-05
*RES
1 *482:X *197:10 9.99 
2 *197:10 *570:D 10.23 
3 *197:10 *489:A 4.395 
*END

*D_NET *198 0.00244232
*CONN
*I *489:B I *D sky130_fd_sc_hd__and4_1
*I *571:D I *D sky130_fd_sc_hd__dfrtp_1
*I *484:X O *D sky130_fd_sc_hd__a21o_1
*CAP
1 *489:B 5.30621e-05
2 *571:D 0.000188354
3 *484:X 0.000348669
4 *198:12 0.000590084
5 *489:B *572:D 4.80285e-05
6 *198:12 *572:D 5.4003e-05
7 *482:A2 *198:12 3.0807e-05
8 *483:B1 *198:12 8.08153e-06
9 *484:A1 *198:12 0.000198939
10 *489:A *489:B 3.66286e-05
11 *489:A *571:D 4.82919e-05
12 *634:A *198:12 2.16389e-05
13 *86:16 *198:12 5.05521e-05
14 *86:59 *571:D 0.000207832
15 *95:94 *489:B 6.9924e-05
16 *95:94 *571:D 0.0003209
17 *106:8 *489:B 1.19928e-05
18 *106:8 *571:D 3.64998e-06
19 *146:25 *198:12 9.27255e-06
20 *197:10 *198:12 0.000141606
*RES
1 *484:X *198:12 11.135 
2 *198:12 *571:D 7.225 
3 *198:12 *489:B 3.1 
*END

*D_NET *199 0.00199692
*CONN
*I *489:C I *D sky130_fd_sc_hd__and4_1
*I *572:D I *D sky130_fd_sc_hd__dfrtp_1
*I *486:X O *D sky130_fd_sc_hd__a21o_1
*CAP
1 *489:C 0
2 *572:D 0.000167731
3 *486:X 0.000392198
4 *199:12 0.000559929
5 *199:12 *489:D 5.05437e-05
6 *483:B1 *572:D 0.000105002
7 *488:A2 *199:12 7.23602e-05
8 *489:B *572:D 4.80285e-05
9 *570:D *572:D 9.86611e-05
10 *86:39 *572:D 7.73272e-05
11 *95:94 *572:D 1.47347e-05
12 *95:94 *199:12 4.80654e-05
13 *95:105 *199:12 0.000164352
14 *96:119 *572:D 4.82863e-05
15 *106:8 *572:D 8.49205e-05
16 *197:10 *572:D 1.07797e-05
17 *198:12 *572:D 5.4003e-05
*RES
1 *486:X *199:12 11.06 
2 *199:12 *572:D 10.46 
3 *199:12 *489:C 1.6 
*END

*D_NET *200 0.00223976
*CONN
*I *573:D I *D sky130_fd_sc_hd__dfrtp_1
*I *489:D I *D sky130_fd_sc_hd__and4_1
*I *488:X O *D sky130_fd_sc_hd__a21o_1
*CAP
1 *573:D 0
2 *489:D 0.000147837
3 *488:X 0.000391674
4 *200:10 0.000539511
5 *483:B1 *489:D 0
6 *487:B1 *200:10 0.000287492
7 *488:A2 *200:10 7.82873e-05
8 *490:C *489:D 3.41395e-05
9 *573:RESET_B *200:10 1.86458e-05
10 *681:A *489:D 0.000178488
11 *95:94 *489:D 8.65905e-05
12 *108:6 *200:10 0.000163204
13 *138:14 *200:10 5.43869e-05
14 *148:62 *489:D 0.000187401
15 *148:75 *489:D 2.15594e-05
16 *199:12 *489:D 5.05437e-05
*RES
1 *488:X *200:10 10.105 
2 *200:10 *489:D 10.835 
3 *200:10 *573:D 1.6 
*END

*D_NET *201 0.00474167
*CONN
*I *504:A I *D sky130_fd_sc_hd__and3_1
*I *574:D I *D sky130_fd_sc_hd__dfrtp_1
*I *492:X O *D sky130_fd_sc_hd__a21o_1
*CAP
1 *504:A 0.000709153
2 *574:D 0.000558435
3 *492:X 0
4 *201:4 0.00126759
5 *504:A *504:B 0.000611907
6 *504:A *575:D 0.000209179
7 *492:A1 *574:D 8.40269e-05
8 *504:C *504:A 4.5783e-05
9 *538:A *504:A 0.00050011
10 *604:A *504:A 0.000210862
11 *660:A *504:A 8.34505e-05
12 *92:61 *504:A 4.85536e-05
13 *92:65 *504:A 0.000176273
14 *110:12 *504:A 0.000120186
15 *114:12 *504:A 0.000116165
16 *155:113 *504:A 0
*RES
1 *492:X *201:4 1.6 
2 *201:4 *574:D 13.64 
3 *201:4 *504:A 23.57 
*END

*D_NET *202 0.00315595
*CONN
*I *575:D I *D sky130_fd_sc_hd__dfrtp_1
*I *504:B I *D sky130_fd_sc_hd__and3_1
*I *494:X O *D sky130_fd_sc_hd__a21o_1
*CAP
1 *575:D 0.000374944
2 *504:B 0.000286178
3 *494:X 5.43201e-05
4 *202:8 0.000715442
5 *494:A1 *202:8 0.000160115
6 *494:B1 *202:8 4.94474e-05
7 *504:A *504:B 0.000611907
8 *504:A *575:D 0.000209179
9 *504:C *504:B 7.06865e-05
10 *574:RESET_B *575:D 2.86975e-05
11 *575:RESET_B *575:D 2.20753e-05
12 *660:A *504:B 9.14049e-05
13 *660:A *575:D 0.000200648
14 *148:136 *504:B 0.000232612
15 *152:24 *504:B 4.82919e-05
*RES
1 *494:X *202:8 5.085 
2 *202:8 *504:B 11.295 
3 *202:8 *575:D 10.935 
*END

*D_NET *203 0.00103873
*CONN
*I *576:D I *D sky130_fd_sc_hd__dfrtp_1
*I *503:A I *D sky130_fd_sc_hd__and4_1
*I *496:X O *D sky130_fd_sc_hd__a21o_1
*CAP
1 *576:D 0.000205721
2 *503:A 0.000173686
3 *496:X 0
4 *203:6 0.000379407
5 *503:A *503:B 4.99619e-05
6 seg1[5] *503:A 0
7 *498:A2 *503:A 5.53249e-06
8 *498:B1 *503:A 4.82863e-05
9 *541:A *503:A 0
10 *576:RESET_B *503:A 5.53249e-06
11 *576:RESET_B *576:D 5.7344e-05
12 *664:A *503:A 0
13 *664:A *576:D 0.000113255
14 *74:52 *503:A 0
15 *74:67 *503:A 0
16 *74:67 *576:D 0
*RES
1 *496:X *203:6 3.6 
2 *203:6 *503:A 6.705 
3 *203:6 *576:D 7.5 
*END

*D_NET *204 0.00131265
*CONN
*I *503:B I *D sky130_fd_sc_hd__and4_1
*I *577:D I *D sky130_fd_sc_hd__dfrtp_1
*I *498:X O *D sky130_fd_sc_hd__a21o_1
*CAP
1 *503:B 0.000167881
2 *577:D 0.000198795
3 *498:X 0
4 *204:4 0.000366676
5 *503:B *503:C 3.26889e-05
6 *577:D *503:C 0
7 *498:A1 *503:B 9.2741e-05
8 *498:A1 *577:D 0
9 *498:A2 *577:D 0
10 *498:B1 *503:B 0.000107415
11 *503:A *503:B 4.99619e-05
12 *577:CLK *577:D 0
13 *577:RESET_B *577:D 0.000296487
*RES
1 *498:X *204:4 1.6 
2 *204:4 *577:D 9.725 
3 *204:4 *503:B 5.44 
*END

*D_NET *205 0.00249589
*CONN
*I *503:C I *D sky130_fd_sc_hd__and4_1
*I *578:D I *D sky130_fd_sc_hd__dfrtp_1
*I *500:X O *D sky130_fd_sc_hd__a21o_1
*CAP
1 *503:C 0.00015651
2 *578:D 0.000240441
3 *500:X 0.000559538
4 *205:12 0.000956488
5 *503:C *503:D 5.83121e-06
6 *498:A1 *503:C 4.76037e-05
7 *498:A2 *503:C 0
8 *498:A2 *578:D 2.56077e-05
9 *498:A2 *205:12 5.36384e-06
10 *498:B1 *503:C 2.08699e-05
11 *499:B1 *205:12 3.62197e-05
12 *500:B1 *205:12 3.62197e-05
13 *503:B *503:C 3.26889e-05
14 *577:D *503:C 0
15 *578:RESET_B *205:12 0.000277061
16 *74:33 *503:C 4.78859e-05
17 *74:52 *503:C 4.75576e-05
*RES
1 *500:X *205:12 12.785 
2 *205:12 *578:D 4.48 
3 *205:12 *503:C 9.275 
*END

*D_NET *206 0.00227097
*CONN
*I *579:D I *D sky130_fd_sc_hd__dfrtp_1
*I *503:D I *D sky130_fd_sc_hd__and4_1
*I *502:X O *D sky130_fd_sc_hd__a21o_1
*CAP
1 *579:D 0
2 *503:D 0.000234358
3 *502:X 0.000268968
4 *206:14 0.000503326
5 *498:A1 *503:D 0.000340517
6 *498:B1 *503:D 0.000124007
7 *500:B1 *206:14 4.05358e-05
8 *503:C *503:D 5.83121e-06
9 *504:C *503:D 0.000107227
10 *504:C *206:14 8.3804e-05
11 *578:RESET_B *206:14 9.86689e-05
12 *579:CLK *503:D 0.000125262
13 *636:A *503:D 4.66108e-05
14 *664:A *206:14 0.00011099
15 *74:18 *206:14 1.52352e-05
16 *74:33 *206:14 4.89295e-05
17 *91:72 *503:D 5.55151e-05
18 *91:72 *206:14 6.11797e-05
*RES
1 *502:X *206:14 11.3 
2 *206:14 *503:D 8.38 
3 *206:14 *579:D 1.6 
*END

*D_NET *207 0.00134154
*CONN
*I *519:A I *D sky130_fd_sc_hd__and3_1
*I *580:D I *D sky130_fd_sc_hd__dfrtp_1
*I *507:X O *D sky130_fd_sc_hd__a21o_1
*CAP
1 *519:A 0
2 *580:D 0.000105242
3 *507:X 0.000344839
4 *207:8 0.000450081
5 *580:D *519:B 3.39069e-05
6 *505:A2 *580:D 0
7 *511:A1 *207:8 8.57313e-05
8 *511:A2 *207:8 1.1392e-05
9 *519:C *580:D 4.43871e-06
10 *519:C *207:8 5.28255e-05
11 *580:CLK *580:D 5.83121e-06
12 *594:D *207:8 6.07575e-06
13 *667:A *580:D 4.99619e-05
14 *667:A *207:8 5.35396e-05
15 *85:37 *580:D 1.91597e-05
16 *85:48 *580:D 0.00011852
*RES
1 *507:X *207:8 5.86 
2 *207:8 *580:D 7.88 
3 *207:8 *519:A 1.6 
*END

*D_NET *208 0.00326519
*CONN
*I *581:D I *D sky130_fd_sc_hd__dfrtp_1
*I *519:B I *D sky130_fd_sc_hd__and3_1
*I *509:X O *D sky130_fd_sc_hd__a21o_1
*CAP
1 *581:D 4.61122e-05
2 *519:B 0.00055618
3 *509:X 0.000135845
4 *208:16 0.000738137
5 *519:B *209:10 9.50342e-06
6 *508:A3 *208:16 4.66108e-05
7 *508:B1 *208:16 6.88421e-05
8 *519:C *519:B 9.77943e-05
9 *580:D *519:B 3.39069e-05
10 *580:RESET_B *519:B 0.000189262
11 *581:CLK *581:D 1.73877e-05
12 *626:A *208:16 0.00032608
13 *666:A *519:B 2.42236e-05
14 *666:A *581:D 4.5783e-05
15 *667:A *519:B 3.84331e-05
16 *85:35 *519:B 8.34281e-06
17 *85:35 *208:16 0.000243959
18 *85:37 *519:B 0.000139111
19 *94:37 *519:B 9.37731e-05
20 *94:37 *581:D 0.000139238
21 *147:14 *208:16 1.34361e-05
22 *154:47 *519:B 4.66108e-05
23 *154:47 *208:16 0.000154977
24 *154:53 *519:B 5.16418e-05
*RES
1 *509:X *208:16 12.13 
2 *208:16 *519:B 16.495 
3 *208:16 *581:D 5.235 
*END

*D_NET *209 0.0022219
*CONN
*I *582:D I *D sky130_fd_sc_hd__dfrtp_1
*I *518:A I *D sky130_fd_sc_hd__and4_1
*I *511:X O *D sky130_fd_sc_hd__a21o_1
*CAP
1 *582:D 8.36417e-05
2 *518:A 0.000489892
3 *511:X 0.000200654
4 *209:10 0.000774188
5 *518:A *583:D 4.77774e-05
6 *505:A1 *209:10 0
7 *511:A1 *209:10 2.68721e-05
8 *514:A2 *518:A 0.000125166
9 *519:B *209:10 9.50342e-06
10 *519:C *209:10 0.000125259
11 *582:RESET_B *518:A 0
12 *594:D *209:10 4.66108e-05
13 *667:A *209:10 8.4346e-05
14 *668:A *518:A 7.5277e-05
15 *668:A *209:10 0
16 *85:48 *518:A 0
17 *85:48 *209:10 0
18 *94:20 *518:A 1.16854e-05
19 *147:37 *518:A 0.000121023
*RES
1 *511:X *209:10 7.56 
2 *209:10 *518:A 12.24 
3 *209:10 *582:D 4.74 
*END

*D_NET *210 0.00236862
*CONN
*I *518:B I *D sky130_fd_sc_hd__and4_1
*I *583:D I *D sky130_fd_sc_hd__dfrtp_1
*I *513:X O *D sky130_fd_sc_hd__a21o_1
*CAP
1 *518:B 5.82405e-05
2 *583:D 0.000548148
3 *513:X 0.000179436
4 *210:6 0.000785824
5 *210:6 *518:D 2.95616e-05
6 *512:B1 *518:B 4.00541e-06
7 *513:B1 *210:6 3.64998e-06
8 *514:A2 *518:B 0
9 *518:A *583:D 4.77774e-05
10 *582:RESET_B *583:D 0.000357881
11 *632:A *583:D 0.000121023
12 *94:20 *518:B 3.34183e-05
13 *94:20 *583:D 2.71912e-06
14 *94:20 *210:6 2.42675e-05
15 *118:6 *583:D 0.000123225
16 *150:53 *583:D 4.94404e-05
*RES
1 *513:X *210:6 3.775 
2 *210:6 *583:D 15.68 
3 *210:6 *518:B 2.92 
*END

*D_NET *211 0.0025197
*CONN
*I *518:C I *D sky130_fd_sc_hd__and4_1
*I *584:D I *D sky130_fd_sc_hd__dfrtp_1
*I *515:X O *D sky130_fd_sc_hd__a21o_1
*CAP
1 *518:C 0.000302535
2 *584:D 0.00026641
3 *515:X 0.00017194
4 *211:10 0.000740885
5 *518:C *518:D 0.000382031
6 *211:10 *518:D 0.00010596
7 *211:10 *585:D 8.53113e-06
8 *514:B1 *584:D 0.000151823
9 *519:C *518:C 7.9642e-06
10 *547:A *584:D 4.92935e-05
11 *72:10 *211:10 0.000161985
12 *85:111 *518:C 0
13 *94:20 *518:C 8.52845e-05
14 *147:37 *518:C 0
15 *150:53 *518:C 0
16 *154:66 *584:D 8.50577e-05
*RES
1 *515:X *211:10 6.465 
2 *211:10 *584:D 8.88 
3 *211:10 *518:C 9.345 
*END

*D_NET *212 0.00217799
*CONN
*I *518:D I *D sky130_fd_sc_hd__and4_1
*I *585:D I *D sky130_fd_sc_hd__dfrtp_1
*I *517:X O *D sky130_fd_sc_hd__a21o_1
*CAP
1 *518:D 0.000252334
2 *585:D 0.000235324
3 *517:X 3.69588e-05
4 *212:8 0.000524617
5 *513:B1 *518:D 0.000139238
6 *515:B1 *518:D 7.06865e-05
7 *515:B1 *585:D 4.9968e-05
8 *516:A3 *585:D 0
9 *517:B1 *585:D 7.26457e-06
10 *518:C *518:D 0.000382031
11 *548:A *585:D 4.20002e-05
12 *585:CLK *585:D 4.28041e-05
13 *585:RESET_B *585:D 0.000120593
14 *72:10 *212:8 4.66108e-05
15 *85:111 *518:D 0
16 *85:117 *518:D 0
17 *94:20 *518:D 8.35068e-05
18 *154:78 *585:D 0
19 *210:6 *518:D 2.95616e-05
20 *211:10 *518:D 0.00010596
21 *211:10 *585:D 8.53113e-06
*RES
1 *517:X *212:8 4.05 
2 *212:8 *585:D 7.995 
3 *212:8 *518:D 10.11 
*END

*D_NET *213 0.000410886
*CONN
*I *586:D I *D sky130_fd_sc_hd__dfrtp_1
*I *522:X O *D sky130_fd_sc_hd__a21o_1
*CAP
1 *586:D 0.000112468
2 *522:X 0.000112468
3 *586:D *587:D 3.23391e-05
4 *520:A3 *586:D 5.4003e-05
5 *525:A1 *586:D 1.17409e-05
6 *88:80 *586:D 2.49909e-05
7 *157:90 *586:D 6.28765e-05
*RES
1 *522:X *586:D 9.375 
*END

*D_NET *214 0.00223539
*CONN
*I *587:D I *D sky130_fd_sc_hd__dfrtp_1
*I *524:X O *D sky130_fd_sc_hd__a21o_1
*CAP
1 *587:D 0.000576058
2 *524:X 0.000576058
3 *520:A3 *587:D 0.000186092
4 *522:B1 *587:D 0.000158066
5 *524:A1 *587:D 0.000200615
6 *586:D *587:D 3.23391e-05
7 *88:78 *587:D 2.97004e-06
8 *92:20 *587:D 0.000118166
9 *121:16 *587:D 8.65905e-05
10 *151:79 *587:D 0.000298435
11 *157:90 *587:D 0
*RES
1 *524:X *587:D 17.28 
*END

*D_NET *215 0.00159679
*CONN
*I *588:D I *D sky130_fd_sc_hd__dfrtp_1
*I *526:X O *D sky130_fd_sc_hd__a21o_1
*CAP
1 *588:D 0.000477002
2 *526:X 0.000477002
3 *561:A *588:D 1.01661e-05
4 *588:CLK *588:D 4.7043e-05
5 *596:D *588:D 0.000267485
6 *597:D *588:D 0
7 *608:A *588:D 0.000318091
8 *155:113 *588:D 0
*RES
1 *526:X *588:D 15.27 
*END

*D_NET *216 0.000477378
*CONN
*I *589:D I *D sky130_fd_sc_hd__dfrtp_1
*I *528:X O *D sky130_fd_sc_hd__a21o_1
*CAP
1 *589:D 0.0001417
2 *528:X 0.0001417
3 *528:B1 *589:D 0
4 *82:12 *589:D 0.00012657
5 *82:66 *589:D 6.74079e-05
*RES
1 *528:X *589:D 9.72 
*END

*D_NET *217 0.00127246
*CONN
*I *590:D I *D sky130_fd_sc_hd__dfrtp_1
*I *530:X O *D sky130_fd_sc_hd__a21o_1
*CAP
1 *590:D 0.000339809
2 *530:X 0.000339809
3 *529:A3 *590:D 0.000449113
4 *530:A2 *590:D 4.82919e-05
5 *96:54 *590:D 9.54399e-05
*RES
1 *530:X *590:D 12.57 
*END

*D_NET *218 0.00053418
*CONN
*I *591:D I *D sky130_fd_sc_hd__dfrtp_1
*I *532:X O *D sky130_fd_sc_hd__a21o_1
*CAP
1 *591:D 0.000115725
2 *532:X 0.000115725
3 *527:A3 *591:D 0
4 *531:B1 *591:D 6.69341e-05
5 *532:A1 *591:D 0.000116165
6 *591:CLK *591:D 0
7 *82:25 *591:D 0.000119631
*RES
1 *532:X *591:D 10.41 
*END
