*SPEF "ieee 1481-1999"
*DESIGN "mini_light_up_game"
*DATE "09:55:36 Tuesday April 28, 2026"
*VENDOR "The OpenROAD Project"
*PROGRAM "OpenROAD"
*VERSION "edf00dff99f6c40d67a30c0e22a8191c5d2ed9d6"
*DESIGN_FLOW "NAME_SCOPE LOCAL" "PIN_CAP NONE"
*DIVIDER /
*DELIMITER :
*BUS_DELIMITER []
*T_UNIT 1 NS
*C_UNIT 1 PF
*R_UNIT 1 OHM
*L_UNIT 1 HENRY

*NAME_MAP
*3 btn
*4 clk
*5 reset
*6 seg0[0]
*7 seg0[1]
*8 seg0[2]
*9 seg0[3]
*10 seg0[4]
*11 seg0[5]
*12 net38
*13 seg1[0]
*14 seg1[1]
*15 seg1[2]
*16 seg1[3]
*17 seg1[4]
*18 seg1[5]
*19 net39
*20 seg2[0]
*21 seg2[1]
*22 seg2[2]
*23 seg2[3]
*24 seg2[4]
*25 seg2[5]
*26 net40
*27 seg3[0]
*28 seg3[1]
*29 seg3[2]
*30 seg3[3]
*31 seg3[4]
*32 seg3[5]
*33 net41
*34 _000_
*35 _001_
*36 _002_
*37 _003_
*38 _004_
*39 _005_
*40 _006_
*41 _007_
*42 _008_
*43 _009_
*44 _010_
*45 _011_
*46 _012_
*47 _013_
*48 _014_
*49 _015_
*50 _016_
*51 _017_
*52 _018_
*53 _019_
*54 _020_
*55 _021_
*56 _022_
*57 _023_
*58 _024_
*59 _025_
*60 _026_
*61 _027_
*62 _028_
*63 _029_
*64 _030_
*65 _031_
*66 _032_
*67 _033_
*68 _034_
*69 _035_
*70 _036_
*71 _037_
*72 _038_
*73 _039_
*74 _040_
*75 _041_
*76 _042_
*77 _043_
*78 _044_
*79 _045_
*80 _046_
*81 _047_
*82 _048_
*83 btn_prev
*84 clknet_0_clk
*85 clknet_2_0__leaf_clk
*86 clknet_2_1__leaf_clk
*87 clknet_2_2__leaf_clk
*88 clknet_2_3__leaf_clk
*89 cnt\[0\]
*90 cnt\[1\]
*91 cursor\[0\]
*92 cursor\[1\]
*93 cursor\[2\]
*94 cursor\[3\]
*95 cursor\[4\]
*96 cursor\[5\]
*97 done_comb\[0\]
*98 done_comb\[1\]
*99 done_comb\[2\]
*100 done_ff\[0\]
*101 done_ff\[1\]
*102 done_ff\[2\]
*103 mem0\[0\]
*104 mem0\[1\]
*105 mem0\[2\]
*106 mem0\[3\]
*107 mem0\[4\]
*108 mem0\[5\]
*109 mem1\[0\]
*110 mem1\[1\]
*111 mem1\[2\]
*112 mem1\[3\]
*113 mem1\[4\]
*114 mem1\[5\]
*115 mem2\[0\]
*116 mem2\[1\]
*117 mem2\[2\]
*118 mem2\[3\]
*119 mem2\[4\]
*120 mem2\[5\]
*121 mem3\[0\]
*122 mem3\[1\]
*123 mem3\[2\]
*124 mem3\[3\]
*125 mem3\[4\]
*126 mem3\[5\]
*127 net1
*128 net10
*129 net11
*130 net12
*131 net13
*132 net14
*133 net15
*134 net16
*135 net17
*136 net18
*137 net19
*138 net2
*139 net20
*140 net21
*141 net22
*142 net23
*143 net24
*144 net25
*145 net26
*146 net27
*147 net28
*148 net29
*149 net3
*150 net30
*151 net31
*152 net32
*153 net33
*154 net34
*155 net35
*156 net36
*157 net37
*158 net4
*159 net42
*160 net43
*161 net44
*162 net45
*163 net46
*164 net47
*165 net48
*166 net49
*167 net5
*168 net50
*169 net51
*170 net52
*171 net53
*172 net54
*173 net55
*174 net56
*175 net57
*176 net58
*177 net59
*178 net6
*179 net60
*180 net61
*181 net62
*182 net63
*183 net64
*184 net65
*185 net66
*186 net67
*187 net68
*188 net69
*189 net7
*190 net70
*191 net71
*192 net72
*193 net8
*194 net9
*195 nxt0\[0\]
*196 nxt0\[1\]
*197 nxt0\[2\]
*198 nxt0\[3\]
*199 nxt0\[4\]
*200 nxt0\[5\]
*201 nxt1\[0\]
*202 nxt1\[1\]
*203 nxt1\[2\]
*204 nxt1\[3\]
*205 nxt1\[4\]
*206 nxt1\[5\]
*207 nxt2\[0\]
*208 nxt2\[1\]
*209 nxt2\[2\]
*210 nxt2\[3\]
*211 nxt2\[4\]
*212 nxt2\[5\]
*213 nxt3\[0\]
*214 nxt3\[1\]
*215 nxt3\[2\]
*216 nxt3\[3\]
*217 nxt3\[4\]
*218 nxt3\[5\]
*219 FILLER_0_105
*220 FILLER_0_111
*221 FILLER_0_113
*222 FILLER_0_121
*223 FILLER_0_15
*224 FILLER_0_27
*225 FILLER_0_29
*226 FILLER_0_3
*227 FILLER_0_35
*228 FILLER_0_55
*229 FILLER_0_57
*230 FILLER_0_83
*231 FILLER_0_93
*232 FILLER_10_11
*233 FILLER_10_23
*234 FILLER_10_27
*235 FILLER_10_40
*236 FILLER_10_47
*237 FILLER_10_51
*238 FILLER_10_82
*239 FILLER_10_92
*240 FILLER_11_108
*241 FILLER_11_113
*242 FILLER_11_24
*243 FILLER_11_28
*244 FILLER_11_3
*245 FILLER_11_57
*246 FILLER_11_77
*247 FILLER_11_88
*248 FILLER_12_29
*249 FILLER_12_59
*250 FILLER_12_7
*251 FILLER_12_83
*252 FILLER_12_85
*253 FILLER_12_91
*254 FILLER_13_121
*255 FILLER_13_3
*256 FILLER_13_85
*257 FILLER_14_11
*258 FILLER_14_111
*259 FILLER_14_119
*260 FILLER_14_40
*261 FILLER_14_82
*262 FILLER_14_91
*263 FILLER_15_102
*264 FILLER_15_110
*265 FILLER_15_113
*266 FILLER_15_117
*267 FILLER_15_25
*268 FILLER_15_3
*269 FILLER_15_54
*270 FILLER_15_57
*271 FILLER_15_73
*272 FILLER_15_81
*273 FILLER_16_112
*274 FILLER_16_119
*275 FILLER_16_15
*276 FILLER_16_29
*277 FILLER_16_3
*278 FILLER_16_85
*279 FILLER_17_11
*280 FILLER_17_110
*281 FILLER_17_121
*282 FILLER_17_55
*283 FILLER_17_57
*284 FILLER_17_63
*285 FILLER_17_7
*286 FILLER_18_120
*287 FILLER_18_15
*288 FILLER_18_27
*289 FILLER_18_3
*290 FILLER_18_38
*291 FILLER_18_50
*292 FILLER_18_62
*293 FILLER_18_96
*294 FILLER_19_111
*295 FILLER_19_113
*296 FILLER_19_15
*297 FILLER_19_27
*298 FILLER_19_3
*299 FILLER_19_39
*300 FILLER_19_51
*301 FILLER_19_55
*302 FILLER_19_57
*303 FILLER_19_69
*304 FILLER_19_80
*305 FILLER_19_89
*306 FILLER_19_99
*307 FILLER_1_15
*308 FILLER_1_23
*309 FILLER_1_3
*310 FILLER_1_52
*311 FILLER_1_60
*312 FILLER_1_89
*313 FILLER_20_105
*314 FILLER_20_111
*315 FILLER_20_113
*316 FILLER_20_15
*317 FILLER_20_27
*318 FILLER_20_29
*319 FILLER_20_3
*320 FILLER_20_41
*321 FILLER_20_49
*322 FILLER_20_55
*323 FILLER_20_57
*324 FILLER_20_69
*325 FILLER_20_77
*326 FILLER_20_83
*327 FILLER_20_85
*328 FILLER_20_93
*329 FILLER_20_98
*330 FILLER_2_107
*331 FILLER_2_18
*332 FILLER_2_24
*333 FILLER_2_35
*334 FILLER_2_6
*335 FILLER_2_69
*336 FILLER_2_78
*337 FILLER_2_83
*338 FILLER_2_85
*339 FILLER_3_111
*340 FILLER_3_119
*341 FILLER_3_15
*342 FILLER_3_3
*343 FILLER_3_65
*344 FILLER_4_111
*345 FILLER_4_119
*346 FILLER_4_27
*347 FILLER_4_29
*348 FILLER_4_3
*349 FILLER_4_73
*350 FILLER_5_102
*351 FILLER_5_110
*352 FILLER_5_113
*353 FILLER_5_3
*354 FILLER_5_46
*355 FILLER_5_80
*356 FILLER_6_121
*357 FILLER_6_49
*358 FILLER_6_7
*359 FILLER_6_74
*360 FILLER_6_82
*361 FILLER_6_88
*362 FILLER_7_113
*363 FILLER_7_26
*364 FILLER_7_60
*365 FILLER_7_68
*366 FILLER_7_7
*367 FILLER_7_91
*368 FILLER_8_27
*369 FILLER_8_3
*370 FILLER_8_64
*371 FILLER_8_75
*372 FILLER_8_82
*373 FILLER_8_85
*374 FILLER_9_102
*375 FILLER_9_13
*376 FILLER_9_52
*377 FILLER_9_57
*378 FILLER_9_7
*379 FILLER_9_94
*380 PHY_EDGE_ROW_0_Left_21
*381 PHY_EDGE_ROW_0_Right_0
*382 PHY_EDGE_ROW_10_Left_31
*383 PHY_EDGE_ROW_10_Right_10
*384 PHY_EDGE_ROW_11_Left_32
*385 PHY_EDGE_ROW_11_Right_11
*386 PHY_EDGE_ROW_12_Left_33
*387 PHY_EDGE_ROW_12_Right_12
*388 PHY_EDGE_ROW_13_Left_34
*389 PHY_EDGE_ROW_13_Right_13
*390 PHY_EDGE_ROW_14_Left_35
*391 PHY_EDGE_ROW_14_Right_14
*392 PHY_EDGE_ROW_15_Left_36
*393 PHY_EDGE_ROW_15_Right_15
*394 PHY_EDGE_ROW_16_Left_37
*395 PHY_EDGE_ROW_16_Right_16
*396 PHY_EDGE_ROW_17_Left_38
*397 PHY_EDGE_ROW_17_Right_17
*398 PHY_EDGE_ROW_18_Left_39
*399 PHY_EDGE_ROW_18_Right_18
*400 PHY_EDGE_ROW_19_Left_40
*401 PHY_EDGE_ROW_19_Right_19
*402 PHY_EDGE_ROW_1_Left_22
*403 PHY_EDGE_ROW_1_Right_1
*404 PHY_EDGE_ROW_20_Left_41
*405 PHY_EDGE_ROW_20_Right_20
*406 PHY_EDGE_ROW_2_Left_23
*407 PHY_EDGE_ROW_2_Right_2
*408 PHY_EDGE_ROW_3_Left_24
*409 PHY_EDGE_ROW_3_Right_3
*410 PHY_EDGE_ROW_4_Left_25
*411 PHY_EDGE_ROW_4_Right_4
*412 PHY_EDGE_ROW_5_Left_26
*413 PHY_EDGE_ROW_5_Right_5
*414 PHY_EDGE_ROW_6_Left_27
*415 PHY_EDGE_ROW_6_Right_6
*416 PHY_EDGE_ROW_7_Left_28
*417 PHY_EDGE_ROW_7_Right_7
*418 PHY_EDGE_ROW_8_Left_29
*419 PHY_EDGE_ROW_8_Right_8
*420 PHY_EDGE_ROW_9_Left_30
*421 PHY_EDGE_ROW_9_Right_9
*422 TAP_TAPCELL_ROW_0_42
*423 TAP_TAPCELL_ROW_0_43
*424 TAP_TAPCELL_ROW_0_44
*425 TAP_TAPCELL_ROW_0_45
*426 TAP_TAPCELL_ROW_10_64
*427 TAP_TAPCELL_ROW_10_65
*428 TAP_TAPCELL_ROW_11_66
*429 TAP_TAPCELL_ROW_11_67
*430 TAP_TAPCELL_ROW_12_68
*431 TAP_TAPCELL_ROW_12_69
*432 TAP_TAPCELL_ROW_13_70
*433 TAP_TAPCELL_ROW_13_71
*434 TAP_TAPCELL_ROW_14_72
*435 TAP_TAPCELL_ROW_14_73
*436 TAP_TAPCELL_ROW_15_74
*437 TAP_TAPCELL_ROW_15_75
*438 TAP_TAPCELL_ROW_16_76
*439 TAP_TAPCELL_ROW_16_77
*440 TAP_TAPCELL_ROW_17_78
*441 TAP_TAPCELL_ROW_17_79
*442 TAP_TAPCELL_ROW_18_80
*443 TAP_TAPCELL_ROW_18_81
*444 TAP_TAPCELL_ROW_19_82
*445 TAP_TAPCELL_ROW_19_83
*446 TAP_TAPCELL_ROW_1_46
*447 TAP_TAPCELL_ROW_1_47
*448 TAP_TAPCELL_ROW_20_84
*449 TAP_TAPCELL_ROW_20_85
*450 TAP_TAPCELL_ROW_20_86
*451 TAP_TAPCELL_ROW_20_87
*452 TAP_TAPCELL_ROW_2_48
*453 TAP_TAPCELL_ROW_2_49
*454 TAP_TAPCELL_ROW_3_50
*455 TAP_TAPCELL_ROW_3_51
*456 TAP_TAPCELL_ROW_4_52
*457 TAP_TAPCELL_ROW_4_53
*458 TAP_TAPCELL_ROW_5_54
*459 TAP_TAPCELL_ROW_5_55
*460 TAP_TAPCELL_ROW_6_56
*461 TAP_TAPCELL_ROW_6_57
*462 TAP_TAPCELL_ROW_7_58
*463 TAP_TAPCELL_ROW_7_59
*464 TAP_TAPCELL_ROW_8_60
*465 TAP_TAPCELL_ROW_8_61
*466 TAP_TAPCELL_ROW_9_62
*467 TAP_TAPCELL_ROW_9_63
*468 _049_
*469 _050_
*470 _051_
*471 _052_
*472 _053_
*473 _054_
*474 _055_
*475 _056_
*476 _057_
*477 _058_
*478 _059_
*479 _060_
*480 _061_
*481 _062_
*482 _063_
*483 _064_
*484 _065_
*485 _066_
*486 _067_
*487 _068_
*488 _069_
*489 _070_
*490 _071_
*491 _072_
*492 _073_
*493 _074_
*494 _075_
*495 _076_
*496 _077_
*497 _078_
*498 _079_
*499 _080_
*500 _081_
*501 _082_
*502 _083_
*503 _084_
*504 _085_
*505 _086_
*506 _087_
*507 _088_
*508 _089_
*509 _090_
*510 _091_
*511 _092_
*512 _093_
*513 _094_
*514 _095_
*515 _096_
*516 _097_
*517 _098_
*518 _099_
*519 _100_
*520 _101_
*521 _102_
*522 _103_
*523 _104_
*524 _105_
*525 _106_
*526 _107_
*527 _108_
*528 _109_
*529 _110_
*530 _111_
*531 _112_
*532 _113_
*533 _114_
*534 _115_
*535 _116_
*536 _117_
*537 _118_
*538 _119_
*539 _120_
*540 _121_
*541 _122_
*542 _123_
*543 _124_
*544 _125_
*545 _126_
*546 _127_
*547 _128_
*548 _129_
*549 _130_
*550 _131_
*551 _132_
*552 _133_
*553 _134_
*554 _135_
*555 _136_
*556 _137_
*557 _138_
*558 _139_
*559 _140_
*560 _141_
*561 _142_
*562 _143_
*563 _144_
*564 _145_
*565 _146_
*566 _147_
*567 _148_
*568 _149_
*569 _150_
*570 _151_
*571 _152_
*572 _153_
*573 _154_
*574 _155_
*575 _156_
*576 _157_
*577 _158_
*578 _159_
*579 _160_
*580 _161_
*581 _162_
*582 _163_
*583 _164_
*584 _165_
*585 _166_
*586 _167_
*587 _168_
*588 _169_
*589 _170_
*590 _171_
*591 _172_
*592 _173_
*593 _174_
*594 _175_
*595 _176_
*596 _177_
*597 _178_
*598 _179_
*599 _180_
*600 _181_
*601 _182_
*602 _183_
*603 _184_
*604 clkbuf_0_clk
*605 clkbuf_2_0__f_clk
*606 clkbuf_2_1__f_clk
*607 clkbuf_2_2__f_clk
*608 clkbuf_2_3__f_clk
*609 clkload0
*610 clkload1
*611 clkload2
*612 fanout28
*613 fanout29
*614 fanout30
*615 fanout31
*616 fanout32
*617 fanout33
*618 fanout34
*619 fanout35
*620 fanout36
*621 fanout37
*622 hold1
*623 hold10
*624 hold11
*625 hold12
*626 hold13
*627 hold14
*628 hold15
*629 hold16
*630 hold17
*631 hold18
*632 hold19
*633 hold2
*634 hold20
*635 hold21
*636 hold22
*637 hold23
*638 hold24
*639 hold25
*640 hold26
*641 hold27
*642 hold28
*643 hold29
*644 hold3
*645 hold30
*646 hold31
*647 hold4
*648 hold5
*649 hold6
*650 hold7
*651 hold8
*652 hold9
*653 input1
*654 input2
*655 max_cap27
*656 mini_light_up_game_38
*657 mini_light_up_game_39
*658 mini_light_up_game_40
*659 mini_light_up_game_41
*660 output10
*661 output11
*662 output12
*663 output13
*664 output14
*665 output15
*666 output16
*667 output17
*668 output18
*669 output19
*670 output20
*671 output21
*672 output22
*673 output23
*674 output24
*675 output25
*676 output26
*677 output3
*678 output4
*679 output5
*680 output6
*681 output7
*682 output8
*683 output9

*PORTS
btn I
clk I
reset I
seg0[0] O
seg0[1] O
seg0[2] O
seg0[3] O
seg0[4] O
seg0[5] O
seg0[6] O
seg1[0] O
seg1[1] O
seg1[2] O
seg1[3] O
seg1[4] O
seg1[5] O
seg1[6] O
seg2[0] O
seg2[1] O
seg2[2] O
seg2[3] O
seg2[4] O
seg2[5] O
seg2[6] O
seg3[0] O
seg3[1] O
seg3[2] O
seg3[3] O
seg3[4] O
seg3[5] O
seg3[6] O

*D_NET *3 0.000996058
*CONN
*P btn I
*I *653:A I *D sky130_fd_sc_hd__buf_1
*CAP
1 btn 0.000363474
2 *653:A 0
3 *3:11 0.000363474
4 *3:11 seg0[1] 8.73764e-05
5 *3:11 seg3[4] 8.73764e-05
6 *3:11 *127:8 5.56203e-05
7 *3:11 *138:50 0
8 *3:11 *157:25 3.8737e-05
*RES
1 btn *3:11 28.0384 
2 *3:11 *653:A 23 
*END

*D_NET *4 0.00691298
*CONN
*P clk I
*I *604:A I *D sky130_fd_sc_hd__clkbuf_16
*CAP
1 clk 0.00259277
2 *604:A 0
3 *4:15 0.00259277
4 *4:15 seg1[0] 1.5289e-05
5 *4:15 seg1[2] 6.91028e-05
6 *4:15 seg1[5] 0
7 *4:15 *13:14 1.59585e-05
8 *4:15 *92:65 9.7017e-05
9 *4:15 *92:80 0.000233044
10 *4:15 *93:12 1.09885e-05
11 *4:15 *96:87 8.02357e-05
12 *4:15 *110:27 2.05503e-05
13 *4:15 *114:10 0.000136486
14 *4:15 *148:136 0
15 *4:15 *148:140 0.000153725
16 *4:15 *152:102 0.000555024
17 *4:15 *171:8 0.000114092
18 *4:15 *201:23 0.000225926
*RES
1 clk *4:15 43.0901 
2 *4:15 *604:A 23 
*END

*D_NET *5 0.000753518
*CONN
*P reset I
*I *654:A I *D sky130_fd_sc_hd__buf_1
*CAP
1 reset 0.000376759
2 *654:A 0.000376759
3 *654:A *138:14 0
4 *654:A *184:10 0
*RES
1 reset *654:A 49.2777 
*END

*D_NET *6 0.00108769
*CONN
*P seg0[0] O
*I *677:X O *D sky130_fd_sc_hd__buf_2
*CAP
1 seg0[0] 0.000213763
2 *677:X 0.000204667
3 *6:8 0.000418429
4 seg0[0] seg0[1] 9.65101e-05
5 *6:8 *149:14 7.27007e-05
6 *6:8 *181:10 8.16253e-05
*RES
1 *677:X *6:8 42.5468 
2 *6:8 seg0[0] 8.9296 
*END

*D_NET *7 0.00170187
*CONN
*P seg0[1] O
*I *678:X O *D sky130_fd_sc_hd__buf_2
*CAP
1 seg0[1] 0.000519659
2 *678:X 0.000519659
3 seg0[1] seg3[4] 0
4 seg0[1] *91:149 0.000294538
5 seg0[1] *95:118 5.77147e-05
6 seg0[1] *156:34 0.00012641
7 seg0[0] seg0[1] 9.65101e-05
8 *3:11 seg0[1] 8.73764e-05
*RES
1 *678:X seg0[1] 49.5179 
*END

*D_NET *8 0.00173084
*CONN
*P seg0[2] O
*I *679:X O *D sky130_fd_sc_hd__buf_2
*CAP
1 seg0[2] 0.000363636
2 *679:X 0.00027385
3 *8:8 0.000637486
4 seg0[2] seg0[3] 0
5 seg0[2] *534:A 8.62876e-05
6 seg0[2] *9:12 0
7 *8:8 *516:A2 1.11538e-05
8 *8:8 *148:20 0.000358425
*RES
1 *679:X *8:8 42.4329 
2 *8:8 seg0[2] 7.99571 
*END

*D_NET *9 0.00189412
*CONN
*P seg0[3] O
*I *680:X O *D sky130_fd_sc_hd__buf_2
*CAP
1 seg0[3] 9.33368e-05
2 *680:X 0.000631653
3 *9:12 0.00072499
4 seg0[3] seg0[4] 0
5 *9:12 seg0[4] 5.50106e-05
6 *9:12 *534:A 0
7 *9:12 *93:101 6.38845e-05
8 *9:12 *147:125 0.000178517
9 *9:12 *148:20 8.94394e-05
10 *9:12 *156:70 5.72853e-05
11 seg0[2] seg0[3] 0
12 seg0[2] *9:12 0
*RES
1 *680:X *9:12 49.8175 
2 *9:12 seg0[3] 2.18536 
*END

*D_NET *10 0.0011962
*CONN
*P seg0[4] O
*I *681:X O *D sky130_fd_sc_hd__buf_2
*CAP
1 seg0[4] 0.000537075
2 *681:X 0.000537075
3 seg0[4] seg0[5] 0
4 seg0[4] *156:70 0
5 seg0[4] *178:10 6.70363e-05
6 seg0[4] *189:10 0
7 seg0[3] seg0[4] 0
8 *9:12 seg0[4] 5.50106e-05
*RES
1 *681:X seg0[4] 49.455 
*END

*D_NET *11 0.00164456
*CONN
*P seg0[5] O
*I *682:X O *D sky130_fd_sc_hd__buf_2
*CAP
1 seg0[5] 0.000374016
2 *682:X 0.000311919
3 *11:8 0.000685935
4 *11:8 *487:A2 1.76557e-05
5 *11:8 *681:A 6.17437e-06
6 *11:8 *96:129 0.000230604
7 *11:8 *148:49 1.46756e-05
8 *11:8 *148:62 3.58084e-06
9 seg0[4] seg0[5] 0
*RES
1 *682:X *11:8 42.9093 
2 *11:8 seg0[5] 7.99571 
*END

*D_NET *12 0.00123409
*CONN
*P seg0[6] O
*I *656:LO O *D sky130_fd_sc_hd__conb_1
*CAP
1 seg0[6] 0.000501171
2 *656:LO 0.000501171
3 seg0[6] seg2[4] 0
4 seg0[6] seg2[5] 0
5 seg0[6] *25:12 0
6 seg0[6] *50:8 4.96717e-05
7 seg0[6] *137:8 0
8 seg0[6] *150:65 4.65412e-05
9 seg0[6] *154:90 0.000135535
*RES
1 *656:LO seg0[6] 49.1029 
*END

*D_NET *13 0.000780086
*CONN
*P seg1[0] O
*I *683:X O *D sky130_fd_sc_hd__buf_2
*CAP
1 seg1[0] 8.65766e-05
2 *683:X 0.000284755
3 *13:14 0.000371332
4 *13:14 *87:47 6.17437e-06
5 *4:15 seg1[0] 1.5289e-05
6 *4:15 *13:14 1.59585e-05
*RES
1 *683:X *13:14 49.9 
2 *13:14 seg1[0] 0.382667 
*END

*D_NET *14 0.00100058
*CONN
*P seg1[1] O
*I *660:X O *D sky130_fd_sc_hd__buf_2
*CAP
1 seg1[1] 0.000500292
2 *660:X 0.000500292
*RES
1 *660:X seg1[1] 47.7979 
*END

*D_NET *15 0.000614155
*CONN
*P seg1[2] O
*I *661:X O *D sky130_fd_sc_hd__buf_2
*CAP
1 seg1[2] 0.000232999
2 *661:X 0.000232999
3 seg1[2] seg1[5] 7.1481e-05
4 seg1[2] *87:49 7.57281e-06
5 *4:15 seg1[2] 6.91028e-05
*RES
1 *661:X seg1[2] 48.0909 
*END

*D_NET *16 0.00070561
*CONN
*P seg1[3] O
*I *662:X O *D sky130_fd_sc_hd__buf_2
*CAP
1 seg1[3] 0.000313778
2 *662:X 0.000313778
3 seg1[3] seg1[4] 1.5289e-05
4 seg1[3] seg1[5] 0
5 seg1[3] seg2[0] 3.49463e-05
6 seg1[3] seg2[1] 0
7 seg1[3] *17:14 1.59585e-05
8 seg1[3] *20:10 1.18615e-05
*RES
1 *662:X seg1[3] 48.7952 
*END

*D_NET *17 0.000779843
*CONN
*P seg1[4] O
*I *663:X O *D sky130_fd_sc_hd__buf_2
*CAP
1 seg1[4] 7.65184e-05
2 *663:X 0.0002853
3 *17:14 0.000361819
4 seg1[4] seg1[5] 2.12457e-05
5 *17:14 *578:CLK 3.7122e-06
6 seg1[3] seg1[4] 1.5289e-05
7 seg1[3] *17:14 1.59585e-05
*RES
1 *663:X *17:14 49.9 
2 *17:14 seg1[4] 0.382667 
*END

*D_NET *18 0.00102732
*CONN
*P seg1[5] O
*I *664:X O *D sky130_fd_sc_hd__buf_2
*CAP
1 seg1[5] 0.000403508
2 *664:X 0.000403508
3 seg1[5] *503:A 0
4 seg1[5] *155:79 0.00012758
5 seg1[2] seg1[5] 7.1481e-05
6 seg1[3] seg1[5] 0
7 seg1[4] seg1[5] 2.12457e-05
8 *4:15 seg1[5] 0
*RES
1 *664:X seg1[5] 48.9168 
*END

*D_NET *19 0.00064879
*CONN
*P seg1[6] O
*I *657:LO O *D sky130_fd_sc_hd__conb_1
*CAP
1 seg1[6] 0.000279521
2 *657:LO 0.000279521
3 seg1[6] seg3[6] 8.97484e-05
*RES
1 *657:LO seg1[6] 48.5734 
*END

*D_NET *20 0.00101375
*CONN
*P seg2[0] O
*I *665:X O *D sky130_fd_sc_hd__buf_2
*CAP
1 seg2[0] 5.25196e-05
2 *665:X 0.000393138
3 *20:10 0.000445657
4 seg2[0] seg2[1] 3.49463e-05
5 *20:10 *130:8 4.06849e-05
6 seg1[3] seg2[0] 3.49463e-05
7 seg1[3] *20:10 1.18615e-05
*RES
1 *665:X *20:10 43.9346 
2 *20:10 seg2[0] 8.32853 
*END

*D_NET *21 0.000698564
*CONN
*P seg2[1] O
*I *666:X O *D sky130_fd_sc_hd__buf_2
*CAP
1 seg2[1] 0.000321186
2 *666:X 0.000321186
3 seg2[1] seg2[2] 2.12457e-05
4 seg2[1] seg2[3] 0
5 seg1[3] seg2[1] 0
6 seg2[0] seg2[1] 3.49463e-05
*RES
1 *666:X seg2[1] 48.5734 
*END

*D_NET *22 0.000762608
*CONN
*P seg2[2] O
*I *667:X O *D sky130_fd_sc_hd__buf_2
*CAP
1 seg2[2] 7.65184e-05
2 *667:X 0.000278539
3 *22:14 0.000355058
4 seg2[2] seg2[3] 1.5289e-05
5 *22:14 seg2[3] 1.59585e-05
6 seg2[1] seg2[2] 2.12457e-05
*RES
1 *667:X *22:14 49.9 
2 *22:14 seg2[2] 0.382667 
*END

*D_NET *23 0.000531123
*CONN
*P seg2[3] O
*I *668:X O *D sky130_fd_sc_hd__buf_2
*CAP
1 seg2[3] 0.000247143
2 *668:X 0.000247143
3 seg2[3] *85:48 5.58873e-06
4 seg2[1] seg2[3] 0
5 seg2[2] seg2[3] 1.5289e-05
6 *22:14 seg2[3] 1.59585e-05
*RES
1 *668:X seg2[3] 47.1648 
*END

*D_NET *24 0.00109596
*CONN
*P seg2[4] O
*I *669:X O *D sky130_fd_sc_hd__buf_2
*CAP
1 seg2[4] 0.000476207
2 *669:X 0.000476207
3 seg2[4] *150:65 0.000143543
4 seg0[6] seg2[4] 0
*RES
1 *669:X seg2[4] 47.57 
*END

*D_NET *25 0.0014656
*CONN
*P seg2[5] O
*I *670:X O *D sky130_fd_sc_hd__buf_2
*CAP
1 seg2[5] 9.33368e-05
2 *670:X 0.000560791
3 *25:12 0.000654128
4 *25:12 *516:A2 6.64697e-05
5 *25:12 *516:B1 3.58084e-06
6 *25:12 *670:A 3.22879e-05
7 *25:12 *150:65 5.50106e-05
8 seg0[6] seg2[5] 0
9 seg0[6] *25:12 0
*RES
1 *670:X *25:12 48.5332 
2 *25:12 seg2[5] 2.18536 
*END

*D_NET *26 0.000692299
*CONN
*P seg2[6] O
*I *658:LO O *D sky130_fd_sc_hd__conb_1
*CAP
1 seg2[6] 0.000114915
2 *658:LO 0.000231234
3 *26:10 0.000346149
*RES
1 *658:LO *26:10 42.0289 
2 *26:10 seg2[6] 8.4816 
*END

*D_NET *27 0.00106448
*CONN
*P seg3[0] O
*I *671:X O *D sky130_fd_sc_hd__buf_2
*CAP
1 seg3[0] 0.000520725
2 *671:X 0.000520725
3 seg3[0] seg3[1] 0
4 seg3[0] *671:A 2.30292e-05
*RES
1 *671:X seg3[0] 48.2743 
*END

*D_NET *28 0.000987333
*CONN
*P seg3[1] O
*I *672:X O *D sky130_fd_sc_hd__buf_2
*CAP
1 seg3[1] 0.000493667
2 *672:X 0.000493667
3 seg3[0] seg3[1] 0
*RES
1 *672:X seg3[1] 47.7979 
*END

*D_NET *29 0.000987333
*CONN
*P seg3[2] O
*I *673:X O *D sky130_fd_sc_hd__buf_2
*CAP
1 seg3[2] 0.000493667
2 *673:X 0.000493667
*RES
1 *673:X seg3[2] 47.7979 
*END

*D_NET *30 0.00102607
*CONN
*P seg3[3] O
*I *674:X O *D sky130_fd_sc_hd__buf_2
*CAP
1 seg3[3] 0.000208436
2 *674:X 0.000199389
3 *30:8 0.000407825
4 seg3[3] seg3[5] 9.65101e-05
5 *30:8 *82:59 0.000113911
*RES
1 *674:X *30:8 42.5468 
2 *30:8 seg3[3] 8.9296 
*END

*D_NET *31 0.000718209
*CONN
*P seg3[4] O
*I *675:X O *D sky130_fd_sc_hd__buf_2
*CAP
1 seg3[4] 0.000234354
2 *675:X 0.000234354
3 seg3[4] seg3[5] 8.75033e-05
4 seg3[4] *157:25 7.46212e-05
5 seg0[1] seg3[4] 0
6 *3:11 seg3[4] 8.73764e-05
*RES
1 *675:X seg3[4] 47.955 
*END

*D_NET *32 0.000638386
*CONN
*P seg3[5] O
*I *676:X O *D sky130_fd_sc_hd__buf_2
*CAP
1 seg3[5] 0.000201728
2 *676:X 0.000201728
3 seg3[5] *126:25 5.09165e-05
4 seg3[3] seg3[5] 9.65101e-05
5 seg3[4] seg3[5] 8.75033e-05
*RES
1 *676:X seg3[5] 47.6028 
*END

*D_NET *33 0.00065006
*CONN
*P seg3[6] O
*I *659:LO O *D sky130_fd_sc_hd__conb_1
*CAP
1 seg3[6] 0.000280156
2 *659:LO 0.000280156
3 seg1[6] seg3[6] 8.97484e-05
*RES
1 *659:LO seg3[6] 48.5734 
*END

*D_NET *34 0.000844061
*CONN
*I *568:RESET_B I *D sky130_fd_sc_hd__dfrtp_1
*I *470:Y O *D sky130_fd_sc_hd__inv_2
*CAP
1 *568:RESET_B 5.95797e-05
2 *470:Y 0.000172269
3 *34:10 0.000231849
4 *568:RESET_B *478:A2 0.000130122
5 *568:RESET_B *195:6 6.61823e-05
6 *34:10 *470:A 6.17437e-06
7 *34:10 *138:50 0.000110913
8 *34:10 *149:14 1.28427e-05
9 *34:10 *156:34 5.41288e-05
*RES
1 *470:Y *34:10 40.6514 
2 *34:10 *568:RESET_B 16.5018 
*END

*D_NET *35 0.000651617
*CONN
*I *569:RESET_B I *D sky130_fd_sc_hd__dfrtp_1
*I *533:Y O *D sky130_fd_sc_hd__inv_2
*CAP
1 *569:RESET_B 0
2 *533:Y 0.000203605
3 *35:8 0.000203605
4 *35:8 *96:48 0
5 *35:8 *104:26 3.86268e-05
6 *35:8 *148:106 0.000133316
7 *35:8 *156:34 7.24652e-05
*RES
1 *533:Y *35:8 42.3707 
2 *35:8 *569:RESET_B 15 
*END

*D_NET *36 0.000304694
*CONN
*I *570:RESET_B I *D sky130_fd_sc_hd__dfrtp_1
*I *534:Y O *D sky130_fd_sc_hd__inv_2
*CAP
1 *570:RESET_B 0
2 *534:Y 0.000119675
3 *36:8 0.000119675
4 *36:8 *481:B1 4.58924e-05
5 *36:8 *564:A 0
6 *36:8 *640:A 1.94522e-05
*RES
1 *534:Y *36:8 40.61 
2 *36:8 *570:RESET_B 15 
*END

*D_NET *37 0.000479814
*CONN
*I *571:RESET_B I *D sky130_fd_sc_hd__dfrtp_1
*I *535:Y O *D sky130_fd_sc_hd__inv_2
*CAP
1 *571:RESET_B 0
2 *535:Y 0.000102342
3 *37:10 0.000102342
4 *37:10 *94:91 0.000110913
5 *37:10 *156:70 0.000110913
6 *37:10 *197:10 5.3304e-05
*RES
1 *535:Y *37:10 40.175 
2 *37:10 *571:RESET_B 15 
*END

*D_NET *38 0.00136882
*CONN
*I *572:RESET_B I *D sky130_fd_sc_hd__dfrtp_1
*I *536:Y O *D sky130_fd_sc_hd__inv_2
*CAP
1 *572:RESET_B 0.000384925
2 *536:Y 0.000384925
3 *572:RESET_B *536:A 0.000130423
4 *572:RESET_B *537:A 0.000271476
5 *572:RESET_B *107:10 2.72257e-05
6 *572:RESET_B *108:27 7.13587e-05
7 *572:RESET_B *184:10 9.84851e-05
*RES
1 *536:Y *572:RESET_B 31.1718 
*END

*D_NET *39 0.000313935
*CONN
*I *573:RESET_B I *D sky130_fd_sc_hd__dfrtp_1
*I *537:Y O *D sky130_fd_sc_hd__inv_2
*CAP
1 *573:RESET_B 1.25511e-05
2 *537:Y 8.27562e-05
3 *39:8 9.53073e-05
4 *573:RESET_B *488:A2 4.83893e-05
5 *573:RESET_B *200:10 2.03425e-05
6 *39:8 *108:27 5.45887e-05
7 *39:8 *138:14 0
*RES
1 *537:Y *39:8 39.5536 
2 *39:8 *573:RESET_B 15.5489 
*END

*D_NET *40 0.000800354
*CONN
*I *574:RESET_B I *D sky130_fd_sc_hd__dfrtp_1
*I *538:Y O *D sky130_fd_sc_hd__inv_2
*CAP
1 *574:RESET_B 0.000253035
2 *538:Y 9.65215e-05
3 *40:8 0.000349556
4 *574:RESET_B *575:CLK 5.41288e-05
5 *574:RESET_B *575:D 3.22051e-05
6 *574:RESET_B *87:41 1.49083e-05
*RES
1 *538:Y *40:8 39.5536 
2 *40:8 *574:RESET_B 18.8839 
*END

*D_NET *41 0.000364035
*CONN
*I *575:RESET_B I *D sky130_fd_sc_hd__dfrtp_1
*I *539:Y O *D sky130_fd_sc_hd__inv_2
*CAP
1 *575:RESET_B 0.00017033
2 *539:Y 0.00017033
3 *575:RESET_B *575:D 2.33744e-05
*RES
1 *539:Y *575:RESET_B 25.4546 
*END

*D_NET *42 0.000339943
*CONN
*I *576:RESET_B I *D sky130_fd_sc_hd__dfrtp_1
*I *540:Y O *D sky130_fd_sc_hd__inv_2
*CAP
1 *576:RESET_B 0
2 *540:Y 0.000123835
3 *42:8 0.000123835
4 *42:8 *503:A 6.07611e-06
5 *42:8 *576:D 6.07929e-05
6 *42:8 *74:67 0
7 *42:8 *87:47 0
8 *42:8 *87:49 0
9 *42:8 *132:26 2.54046e-05
*RES
1 *540:Y *42:8 40.61 
2 *42:8 *576:RESET_B 15 
*END

*D_NET *43 0.00130057
*CONN
*I *577:RESET_B I *D sky130_fd_sc_hd__dfrtp_1
*I *541:Y O *D sky130_fd_sc_hd__inv_2
*CAP
1 *577:RESET_B 7.84665e-05
2 *541:Y 0.00018361
3 *43:10 0.000262077
4 *577:RESET_B *131:8 0.000219685
5 *577:RESET_B *204:12 2.93747e-05
6 *43:10 *577:CLK 1.7992e-05
7 *43:10 *663:A 0.000141879
8 *43:10 *87:49 4.59027e-05
9 *43:10 *204:12 0.000321581
*RES
1 *541:Y *43:10 42.9921 
2 *43:10 *577:RESET_B 17.4546 
*END

*D_NET *44 0.00195887
*CONN
*I *578:RESET_B I *D sky130_fd_sc_hd__dfrtp_1
*I *542:Y O *D sky130_fd_sc_hd__inv_2
*CAP
1 *578:RESET_B 0.000237802
2 *542:Y 0.000266496
3 *44:8 0.000504298
4 *578:RESET_B *113:6 0.000180218
5 *578:RESET_B *113:19 0.000126169
6 *578:RESET_B *152:26 9.43689e-05
7 *578:RESET_B *152:32 7.42621e-05
8 *578:RESET_B *205:12 0.000298001
9 *44:8 *87:12 0
10 *44:8 *94:49 0
11 *44:8 *132:14 7.20837e-05
12 *44:8 *206:10 0.000105175
*RES
1 *542:Y *44:8 43.075 
2 *44:8 *578:RESET_B 22.2189 
*END

*D_NET *45 0.000694334
*CONN
*I *579:RESET_B I *D sky130_fd_sc_hd__dfrtp_1
*I *543:Y O *D sky130_fd_sc_hd__inv_2
*CAP
1 *579:RESET_B 0.000206616
2 *543:Y 0.000206616
3 *579:RESET_B *79:6 1.24376e-05
4 *579:RESET_B *91:72 0.00021536
5 *579:RESET_B *114:10 5.3304e-05
*RES
1 *543:Y *579:RESET_B 26.7804 
*END

*D_NET *46 0.000488811
*CONN
*I *580:RESET_B I *D sky130_fd_sc_hd__dfrtp_1
*I *544:Y O *D sky130_fd_sc_hd__inv_2
*CAP
1 *580:RESET_B 7.97779e-05
2 *544:Y 7.97779e-05
3 *580:RESET_B *85:35 2.18409e-05
4 *580:RESET_B *85:37 9.16355e-05
5 *580:RESET_B *208:26 0.000215778
*RES
1 *544:Y *580:RESET_B 25.4546 
*END

*D_NET *47 0.00068955
*CONN
*I *581:RESET_B I *D sky130_fd_sc_hd__dfrtp_1
*I *545:Y O *D sky130_fd_sc_hd__inv_2
*CAP
1 *581:RESET_B 0.00011545
2 *545:Y 7.17242e-05
3 *47:8 0.000187174
4 *581:RESET_B *154:35 0.000191255
5 *581:RESET_B *170:10 1.16434e-05
6 *47:8 *80:12 0.000112303
*RES
1 *545:Y *47:8 39.5536 
2 *47:8 *581:RESET_B 17.4546 
*END

*D_NET *48 0.00221256
*CONN
*I *582:RESET_B I *D sky130_fd_sc_hd__dfrtp_1
*I *546:Y O *D sky130_fd_sc_hd__inv_2
*CAP
1 *582:RESET_B 0.000113289
2 *546:Y 0.000642846
3 *48:12 0.000756135
4 *582:RESET_B *518:A 0
5 *582:RESET_B *147:56 5.26204e-05
6 *48:12 *546:A 0.000213419
7 *48:12 *632:A 3.06991e-05
8 *48:12 *210:20 0.000403554
*RES
1 *546:Y *48:12 48.7921 
2 *48:12 *582:RESET_B 17.2579 
*END

*D_NET *49 0.000186963
*CONN
*I *583:RESET_B I *D sky130_fd_sc_hd__dfrtp_1
*I *547:Y O *D sky130_fd_sc_hd__inv_2
*CAP
1 *583:RESET_B 0
2 *547:Y 9.34814e-05
3 *49:8 9.34814e-05
4 *49:8 *147:56 0
*RES
1 *547:Y *49:8 39.5536 
2 *49:8 *583:RESET_B 15 
*END

*D_NET *50 0.00214656
*CONN
*I *584:RESET_B I *D sky130_fd_sc_hd__dfrtp_1
*I *548:Y O *D sky130_fd_sc_hd__inv_2
*CAP
1 *584:RESET_B 0.00026773
2 *548:Y 0.000316331
3 *50:8 0.000584062
4 *584:RESET_B *95:70 0.000166513
5 *584:RESET_B *119:14 0.000348465
6 *584:RESET_B *137:8 8.62876e-05
7 *584:RESET_B *150:53 0.000137174
8 *584:RESET_B *150:57 1.52259e-05
9 *584:RESET_B *150:65 4.06512e-05
10 *584:RESET_B *154:78 5.55278e-05
11 *584:RESET_B *154:90 0
12 *50:8 *150:65 7.89191e-05
13 seg0[6] *50:8 4.96717e-05
*RES
1 *548:Y *50:8 42.4329 
2 *50:8 *584:RESET_B 23.2443 
*END

*D_NET *51 0.000516406
*CONN
*I *585:RESET_B I *D sky130_fd_sc_hd__dfrtp_1
*I *549:Y O *D sky130_fd_sc_hd__inv_2
*CAP
1 *585:RESET_B 3.64006e-05
2 *549:Y 5.10529e-05
3 *51:8 8.74535e-05
4 *585:RESET_B *585:CLK 8.97405e-05
5 *585:RESET_B *585:D 2.93747e-05
6 *51:8 *585:D 0.000110922
7 *51:8 *154:90 0.000111462
*RES
1 *549:Y *51:8 39.5536 
2 *51:8 *585:RESET_B 16.0254 
*END

*D_NET *52 0.000898399
*CONN
*I *586:RESET_B I *D sky130_fd_sc_hd__dfrtp_1
*I *550:Y O *D sky130_fd_sc_hd__inv_2
*CAP
1 *586:RESET_B 0.000235141
2 *550:Y 6.8028e-05
3 *52:8 0.000303169
4 *586:RESET_B *121:10 5.70419e-05
5 *52:8 *523:B1 3.70094e-05
6 *52:8 *82:59 5.61311e-05
7 *52:8 *122:10 0.000141879
*RES
1 *550:Y *52:8 40.2579 
2 *52:8 *586:RESET_B 19.3604 
*END

*D_NET *53 0.000733437
*CONN
*I *587:RESET_B I *D sky130_fd_sc_hd__dfrtp_1
*I *551:Y O *D sky130_fd_sc_hd__inv_2
*CAP
1 *587:RESET_B 0.00020964
2 *551:Y 0.00020964
3 *587:RESET_B *551:A 8.52481e-05
4 *587:RESET_B *156:115 0.000228909
*RES
1 *551:Y *587:RESET_B 27.3604 
*END

*D_NET *54 0.000300995
*CONN
*I *588:RESET_B I *D sky130_fd_sc_hd__dfrtp_1
*I *552:Y O *D sky130_fd_sc_hd__inv_2
*CAP
1 *588:RESET_B 0
2 *552:Y 9.93149e-05
3 *54:8 9.93149e-05
4 *54:8 *642:A 0
5 *54:8 *92:12 0
6 *54:8 *123:12 0
7 *54:8 *142:10 0.000102365
*RES
1 *552:Y *54:8 40.61 
2 *54:8 *588:RESET_B 15 
*END

*D_NET *55 0.000784249
*CONN
*I *589:RESET_B I *D sky130_fd_sc_hd__dfrtp_1
*I *553:Y O *D sky130_fd_sc_hd__inv_2
*CAP
1 *589:RESET_B 0.000180209
2 *553:Y 7.1769e-05
3 *55:8 0.000251978
4 *589:RESET_B *532:B1 5.67058e-05
5 *589:RESET_B *96:69 9.67842e-05
6 *55:8 *96:69 1.58805e-05
7 *55:8 *124:8 0
8 *55:8 *156:115 0.000110922
*RES
1 *553:Y *55:8 39.5536 
2 *55:8 *589:RESET_B 18.4075 
*END

*D_NET *56 0.000662478
*CONN
*I *590:RESET_B I *D sky130_fd_sc_hd__dfrtp_1
*I *554:Y O *D sky130_fd_sc_hd__inv_2
*CAP
1 *590:RESET_B 0
2 *554:Y 0.000123226
3 *56:10 0.000123226
4 *56:10 *554:A 2.64616e-05
5 *56:10 *96:48 0
6 *56:10 *144:10 0.000167452
7 *56:10 *156:115 0.000222113
*RES
1 *554:Y *56:10 41.5836 
2 *56:10 *590:RESET_B 15 
*END

*D_NET *57 0.00189143
*CONN
*I *591:RESET_B I *D sky130_fd_sc_hd__dfrtp_1
*I *555:Y O *D sky130_fd_sc_hd__inv_2
*CAP
1 *591:RESET_B 5.97812e-05
2 *555:Y 0.00037405
3 *57:10 0.000433831
4 *591:RESET_B *126:12 8.79516e-05
5 *57:10 *82:33 0.00010018
6 *57:10 *125:8 0.000194309
7 *57:10 *127:12 9.88574e-06
8 *57:10 *138:50 0.000213751
9 *57:10 *145:10 4.96264e-05
10 *57:10 *157:25 6.88819e-05
11 *57:10 *165:10 0.000299178
*RES
1 *555:Y *57:10 47.2386 
2 *57:10 *591:RESET_B 16.0254 
*END

*D_NET *58 0.000774353
*CONN
*I *592:RESET_B I *D sky130_fd_sc_hd__dfrtp_1
*I *556:Y O *D sky130_fd_sc_hd__inv_2
*CAP
1 *592:RESET_B 0.00012006
2 *556:Y 7.35864e-05
3 *58:8 0.000193647
4 *592:RESET_B *147:107 3.84966e-05
5 *58:8 *97:10 0.00014411
6 *58:8 *147:109 8.62783e-05
7 *58:8 *147:176 0.000118174
8 *58:8 *156:52 0
*RES
1 *556:Y *58:8 40.61 
2 *58:8 *592:RESET_B 16.9782 
*END

*D_NET *59 0.000570536
*CONN
*I *593:RESET_B I *D sky130_fd_sc_hd__dfrtp_1
*I *557:Y O *D sky130_fd_sc_hd__inv_2
*CAP
1 *593:RESET_B 3.50725e-05
2 *557:Y 0.000104673
3 *59:8 0.000139746
4 *593:RESET_B *155:63 9.35646e-05
5 *59:8 *93:12 0
6 *59:8 *93:20 0
7 *59:8 *155:100 0.000197479
*RES
1 *557:Y *59:8 40.61 
2 *59:8 *593:RESET_B 16.0254 
*END

*D_NET *60 0.000412838
*CONN
*I *594:RESET_B I *D sky130_fd_sc_hd__dfrtp_1
*I *558:Y O *D sky130_fd_sc_hd__inv_2
*CAP
1 *594:RESET_B 9.4546e-05
2 *558:Y 9.4546e-05
3 *594:RESET_B *102:10 0.00014196
4 *594:RESET_B *147:107 8.17866e-05
*RES
1 *558:Y *594:RESET_B 25.9311 
*END

*D_NET *61 0.000522734
*CONN
*I *595:SET_B I *D sky130_fd_sc_hd__dfstp_2
*I *559:Y O *D sky130_fd_sc_hd__inv_2
*CAP
1 *595:SET_B 0
2 *559:Y 0.000154682
3 *61:10 0.000154682
4 *61:10 *92:80 0.00019746
5 *61:10 *96:87 0
6 *61:10 *154:29 1.21972e-05
7 *61:10 *154:35 3.7122e-06
*RES
1 *559:Y *61:10 41.2314 
2 *61:10 *595:SET_B 15 
*END

*D_NET *62 0.00140712
*CONN
*I *596:RESET_B I *D sky130_fd_sc_hd__dfrtp_4
*I *560:Y O *D sky130_fd_sc_hd__inv_2
*CAP
1 *596:RESET_B 9.63181e-05
2 *560:Y 0.000241262
3 *62:10 0.00033758
4 *596:RESET_B *586:CLK 0.000260551
5 *596:RESET_B *91:51 5.84847e-05
6 *62:10 *649:A 1.21972e-05
7 *62:10 *92:12 0.000110922
8 *62:10 *162:10 0.000289806
*RES
1 *560:Y *62:10 42.0807 
2 *62:10 *596:RESET_B 17.9311 
*END

*D_NET *63 0.000507195
*CONN
*I *597:RESET_B I *D sky130_fd_sc_hd__dfrtp_4
*I *561:Y O *D sky130_fd_sc_hd__inv_2
*CAP
1 *597:RESET_B 0
2 *561:Y 5.70576e-05
3 *63:8 5.70576e-05
4 *63:8 *596:D 0.00019654
5 *63:8 *157:59 0.00019654
*RES
1 *561:Y *63:8 40.61 
2 *63:8 *597:RESET_B 15 
*END

*D_NET *64 0.000227554
*CONN
*I *598:RESET_B I *D sky130_fd_sc_hd__dfrtp_4
*I *562:Y O *D sky130_fd_sc_hd__inv_2
*CAP
1 *598:RESET_B 0
2 *562:Y 0.000113777
3 *64:8 0.000113777
4 *64:8 *563:A 0
5 *64:8 *93:93 0
*RES
1 *562:Y *64:8 39.9057 
2 *64:8 *598:RESET_B 15 
*END

*D_NET *65 0.000938971
*CONN
*I *599:RESET_B I *D sky130_fd_sc_hd__dfrtp_4
*I *563:Y O *D sky130_fd_sc_hd__inv_2
*CAP
1 *599:RESET_B 6.84887e-05
2 *563:Y 0.000189588
3 *65:10 0.000258077
4 *65:10 *564:A 1.22906e-05
5 *65:10 *643:A 5.3304e-05
6 *65:10 *86:65 0.000323797
7 *65:10 *95:94 3.34247e-05
*RES
1 *563:Y *65:10 42.785 
2 *65:10 *599:RESET_B 16.0254 
*END

*D_NET *66 0.000345539
*CONN
*I *600:RESET_B I *D sky130_fd_sc_hd__dfrtp_4
*I *564:Y O *D sky130_fd_sc_hd__inv_2
*CAP
1 *600:RESET_B 0
2 *564:Y 0.000140427
3 *66:10 0.000140427
4 *66:10 *516:B1 2.76611e-06
5 *66:10 *564:A 3.22879e-05
6 *66:10 *637:A 2.96322e-05
*RES
1 *564:Y *66:10 40.175 
2 *66:10 *600:RESET_B 15 
*END

*D_NET *67 0.000599619
*CONN
*I *601:RESET_B I *D sky130_fd_sc_hd__dfrtp_1
*I *565:Y O *D sky130_fd_sc_hd__inv_2
*CAP
1 *601:RESET_B 0
2 *565:Y 0.000105784
3 *67:10 0.000105784
4 *67:10 *616:A 8.62876e-05
5 *67:10 *617:A 8.02348e-05
6 *67:10 *91:30 5.50049e-05
7 *67:10 *93:93 0.000166522
*RES
1 *565:Y *67:10 40.8793 
2 *67:10 *601:RESET_B 15 
*END

*D_NET *68 0.00118053
*CONN
*I *602:RESET_B I *D sky130_fd_sc_hd__dfrtp_1
*I *566:Y O *D sky130_fd_sc_hd__inv_2
*CAP
1 *602:RESET_B 5.01152e-05
2 *566:Y 0.000205133
3 *68:10 0.000255248
4 *602:RESET_B *90:8 1.59094e-05
5 *602:RESET_B *152:22 5.3304e-05
6 *68:10 *476:A1_N 1.57571e-05
7 *68:10 *566:A 1.24376e-05
8 *68:10 *70:8 0.000114074
9 *68:10 *91:20 6.16439e-05
10 *68:10 *91:64 0.000139647
11 *68:10 *155:46 0.000191148
12 *68:10 *155:57 4.3407e-05
13 *68:10 *155:100 2.76611e-06
14 *68:10 *185:12 1.99391e-05
*RES
1 *566:Y *68:10 43.3443 
2 *68:10 *602:RESET_B 16.0461 
*END

*D_NET *69 0.00124826
*CONN
*I *603:RESET_B I *D sky130_fd_sc_hd__dfrtp_1
*I *567:Y O *D sky130_fd_sc_hd__inv_2
*CAP
1 *603:RESET_B 0.00022659
2 *567:Y 6.48898e-05
3 *69:8 0.000291479
4 *603:RESET_B *474:C 2.02872e-05
5 *603:RESET_B *655:A 0.000312342
6 *603:RESET_B *76:12 9.84851e-05
7 *603:RESET_B *83:6 8.60475e-05
8 *603:RESET_B *83:16 4.70852e-05
9 *603:RESET_B *127:14 1.22516e-05
10 *69:8 *567:A 5.56306e-05
11 *69:8 *150:15 3.31683e-05
*RES
1 *567:Y *69:8 39.5536 
2 *69:8 *603:RESET_B 20.3132 
*END

*D_NET *70 0.000697331
*CONN
*I *601:D I *D sky130_fd_sc_hd__dfrtp_1
*I *476:X O *D sky130_fd_sc_hd__o2bb2a_1
*CAP
1 *601:D 0.000148854
2 *476:X 4.27883e-05
3 *70:8 0.000191642
4 *601:D *601:CLK 6.70361e-05
5 *601:D *155:46 1.32314e-05
6 *601:D *185:12 5.61255e-06
7 *70:8 *185:12 0.000114092
8 *68:10 *70:8 0.000114074
*RES
1 *476:X *70:8 39.5536 
2 *70:8 *601:D 40.0507 
*END

*D_NET *71 0.000670477
*CONN
*I *602:D I *D sky130_fd_sc_hd__dfrtp_1
*I *472:X O *D sky130_fd_sc_hd__a21o_1
*CAP
1 *602:D 0
2 *472:X 0.000268634
3 *71:10 0.000268634
4 *71:10 *472:B1 1.94812e-05
5 *71:10 *77:16 0
6 *71:10 *93:93 0.000113728
*RES
1 *472:X *71:10 43.3443 
2 *71:10 *602:D 38 
*END

*D_NET *72 0.0106775
*CONN
*I *613:A I *D sky130_fd_sc_hd__buf_2
*I *501:A1 I *D sky130_fd_sc_hd__a31o_1
*I *499:A1 I *D sky130_fd_sc_hd__a31o_1
*I *468:Y O *D sky130_fd_sc_hd__inv_2
*CAP
1 *613:A 0.000994297
2 *501:A1 0
3 *499:A1 0.000229334
4 *468:Y 0.000548344
5 *72:53 0.000193517
6 *72:34 0.000486407
7 *72:30 0.000833151
8 *72:10 0.00231224
9 *499:A1 *74:18 0.000199917
10 *499:A1 *74:33 0.00018867
11 *499:A1 *112:29 0.000123879
12 *613:A *517:A1 3.70071e-06
13 *613:A *640:A 5.41288e-05
14 *613:A *96:8 0.000157037
15 *613:A *96:117 0.000153455
16 *72:10 *468:A 4.9662e-05
17 *72:10 *515:A2 0.000110358
18 *72:10 *515:B1 0.000356246
19 *72:10 *517:A1 5.14746e-06
20 *72:10 *600:CLK 3.76965e-05
21 *72:10 *211:10 0.000190627
22 *72:10 *212:8 5.3304e-05
23 *72:30 *80:12 0.000354988
24 *72:30 *80:16 0.000248918
25 *72:30 *80:20 0.000420743
26 *72:30 *96:32 0.000569051
27 *72:30 *96:87 0.000718577
28 *72:30 *112:29 0
29 *72:30 *148:136 0.000111852
30 *72:30 *187:10 0.000141869
31 *72:30 *191:10 0.000347237
32 *72:34 *74:18 9.41704e-05
33 *72:53 *500:A1 0
34 *72:53 *501:A3 0.000100061
35 *72:53 *501:B1 5.56279e-05
36 *72:53 *96:102 0.000112294
37 *72:53 *148:136 9.63408e-05
38 *72:53 *152:24 2.46906e-05
39 *72:53 *173:8 0
*RES
1 *468:Y *72:10 33.7921 
2 *72:10 *72:30 42.1564 
3 *72:30 *72:34 16.0979 
4 *72:34 *499:A1 29.5043 
5 *72:34 *72:53 34.4121 
6 *72:53 *501:A1 23 
7 *72:10 *613:A 39.8821 
*END

*D_NET *73 0.011579
*CONN
*I *485:A2 I *D sky130_fd_sc_hd__a31o_1
*I *487:A2 I *D sky130_fd_sc_hd__a31o_1
*I *612:A I *D sky130_fd_sc_hd__buf_2
*I *469:Y O *D sky130_fd_sc_hd__inv_2
*CAP
1 *485:A2 0
2 *487:A2 0.000407291
3 *612:A 0
4 *469:Y 4.88775e-05
5 *73:33 0.00129089
6 *73:31 0.00172824
7 *73:14 0.00123296
8 *73:8 0.000437193
9 *487:A2 *488:A2 0
10 *487:A2 *96:117 0.000349386
11 *487:A2 *96:129 3.22879e-05
12 *487:A2 *107:10 0
13 *487:A2 *108:27 0
14 *487:A2 *148:62 0.000129838
15 *487:A2 *148:75 1.58805e-05
16 *73:8 *91:82 3.81391e-05
17 *73:8 *93:37 0.000114083
18 *73:14 *497:A1 2.00767e-05
19 *73:14 *80:8 0
20 *73:14 *94:37 0.000143543
21 *73:14 *112:29 0.000106318
22 *73:14 *130:8 0.0001396
23 *73:14 *147:14 0.000188934
24 *73:31 *497:A1 0.000304225
25 *73:31 *506:D 8.06804e-06
26 *73:31 *545:A 0.000159101
27 *73:31 *567:A 2.93747e-05
28 *73:31 *80:8 0.000327247
29 *73:31 *90:16 0.000781059
30 *73:31 *148:117 0.00217644
31 *73:31 *152:137 1.40958e-05
32 *73:33 *478:A2 0
33 *73:33 *488:A2 0
34 *73:33 *590:CLK 6.38845e-05
35 *73:33 *92:138 2.2119e-05
36 *73:33 *95:132 0.00025214
37 *73:33 *96:48 0.000174279
38 *73:33 *107:10 0
39 *73:33 *147:182 2.05503e-05
40 *73:33 *148:75 0.000549249
41 *73:33 *148:91 4.7568e-05
42 *73:33 *148:117 0.000145844
43 *73:33 *195:14 6.25829e-05
44 *11:8 *487:A2 1.76557e-05
*RES
1 *469:Y *73:8 39.5536 
2 *73:8 *73:14 23.7414 
3 *73:14 *612:A 23 
4 *73:14 *73:31 45.3671 
5 *73:31 *73:33 20.9214 
6 *73:33 *487:A2 47.3421 
7 *73:33 *485:A2 38 
*END

*D_NET *74 0.011621
*CONN
*I *472:A2 I *D sky130_fd_sc_hd__a21o_1
*I *476:A2_N I *D sky130_fd_sc_hd__o2bb2a_1
*I *502:A2 I *D sky130_fd_sc_hd__a21o_1
*I *494:A2 I *D sky130_fd_sc_hd__a21o_1
*I *492:A2 I *D sky130_fd_sc_hd__a21o_1
*I *496:A2 I *D sky130_fd_sc_hd__a21o_1
*I *498:A2 I *D sky130_fd_sc_hd__a21o_1
*I *500:A2 I *D sky130_fd_sc_hd__a21o_1
*I *471:X O *D sky130_fd_sc_hd__and4bb_2
*CAP
1 *472:A2 0.000138193
2 *476:A2_N 9.11989e-05
3 *502:A2 0
4 *494:A2 0.000217235
5 *492:A2 0
6 *496:A2 0
7 *498:A2 0
8 *500:A2 0
9 *471:X 6.44903e-05
10 *74:96 0.000459835
11 *74:73 0.000186735
12 *74:67 0.0010799
13 *74:52 0.00091028
14 *74:43 0.000380043
15 *74:33 0.0012166
16 *74:18 0.000730142
17 *74:12 0.000695448
18 *74:6 0.000862441
19 *472:A2 *472:A1 0.000113508
20 *472:A2 *566:A 1.14154e-05
21 *476:A2_N *566:A 5.3304e-05
22 *476:A2_N *157:47 5.61255e-06
23 *494:A2 *491:B1 9.5877e-05
24 *494:A2 *631:A 0.00031007
25 *74:6 *471:B_N 8.6949e-05
26 *74:12 *471:B_N 0.00017761
27 *74:12 *502:B1 0.000184527
28 *74:12 *93:20 0.000308045
29 *74:12 *152:14 5.90675e-06
30 *74:12 *192:8 9.6103e-05
31 *74:18 *502:B1 7.17741e-05
32 *74:18 *206:10 1.59071e-05
33 *74:33 *499:A3 5.3304e-05
34 *74:33 *502:B1 1.11037e-05
35 *74:33 *93:37 0.000122386
36 *74:33 *112:6 7.17787e-05
37 *74:33 *112:29 2.36918e-05
38 *74:33 *131:8 0.000352421
39 *74:33 *205:35 4.76829e-05
40 *74:33 *206:10 5.79559e-05
41 *74:43 *503:A 6.07611e-06
42 *74:43 *578:D 2.58572e-05
43 *74:43 *94:55 8.9458e-05
44 *74:43 *204:12 0
45 *74:43 *205:12 5.27215e-06
46 *74:43 *205:35 0
47 *74:52 *503:A 0
48 *74:52 *93:37 9.79241e-05
49 *74:52 *205:35 4.96264e-05
50 *74:67 *491:A2 0
51 *74:67 *491:A3 0.000223692
52 *74:67 *491:B1 1.03955e-05
53 *74:67 *503:A 0
54 *74:67 *576:D 0
55 *74:67 *93:37 1.19692e-05
56 *74:67 *194:10 5.27215e-06
57 *74:73 *492:A1 0.000379403
58 *74:73 *87:37 0.000164282
59 *74:73 *177:8 8.37775e-05
60 *74:96 *615:A 0.000429621
61 *74:96 *77:16 0.000162133
62 *74:96 *90:16 8.4047e-05
63 *499:A1 *74:18 0.000199917
64 *499:A1 *74:33 0.00018867
65 *42:8 *74:67 0
66 *72:34 *74:18 9.41704e-05
*RES
1 *471:X *74:6 24.0979 
2 *74:6 *74:12 11.1443 
3 *74:12 *74:18 3.99786 
4 *74:18 *500:A2 23 
5 *74:18 *74:33 29.1064 
6 *74:33 *74:43 35.8829 
7 *74:43 *498:A2 38 
8 *74:33 *74:52 4.72286 
9 *74:52 *496:A2 38 
10 *74:52 *74:67 25.3571 
11 *74:67 *74:73 35.7793 
12 *74:73 *492:A2 23 
13 *74:67 *494:A2 28.3857 
14 *74:12 *502:A2 23 
15 *74:6 *74:96 36.8357 
16 *74:96 *476:A2_N 24.0979 
17 *74:96 *472:A2 26.045 
*END

*D_NET *75 0.00055407
*CONN
*I *475:B1 I *D sky130_fd_sc_hd__a21o_1
*I *473:X O *D sky130_fd_sc_hd__and4b_1
*CAP
1 *475:B1 2.3711e-05
2 *473:X 0.000129237
3 *75:12 0.000152948
4 *475:B1 *77:12 5.50106e-05
5 *475:B1 *92:126 0.000143655
6 *475:B1 *150:21 4.95081e-05
7 *75:12 *93:93 0
*RES
1 *473:X *75:12 39.6157 
2 *75:12 *475:B1 39.5743 
*END

*D_NET *76 0.00140861
*CONN
*I *655:A I *D sky130_fd_sc_hd__clkbuf_2
*I *475:A2 I *D sky130_fd_sc_hd__a21o_1
*I *474:Y O *D sky130_fd_sc_hd__nor4b_1
*CAP
1 *655:A 8.2938e-05
2 *475:A2 0
3 *474:Y 0
4 *76:12 0.000178014
5 *76:4 0.000260952
6 *655:A *474:C 8.6949e-05
7 *655:A *127:12 8.1796e-05
8 *655:A *127:14 6.9805e-05
9 *76:12 *474:C 0.000135504
10 *76:12 *93:93 0.000101824
11 *76:12 *147:176 0
12 *76:12 *150:21 0
13 *603:RESET_B *655:A 0.000312342
14 *603:RESET_B *76:12 9.84851e-05
*RES
1 *474:Y *76:4 23 
2 *76:4 *76:12 34.4121 
3 *76:12 *475:A2 23 
4 *76:4 *655:A 26.9564 
*END

*D_NET *77 0.00274244
*CONN
*I *476:B1 I *D sky130_fd_sc_hd__o2bb2a_1
*I *475:X O *D sky130_fd_sc_hd__a21o_1
*CAP
1 *476:B1 0
2 *475:X 0.000303539
3 *77:16 0.000795205
4 *77:12 0.00109874
5 *77:12 *473:B 0
6 *77:12 *92:126 2.89076e-05
7 *77:12 *93:93 0
8 *77:12 *150:21 9.84851e-05
9 *77:16 *473:B 2.24608e-05
10 *77:16 *603:D 6.25829e-05
11 *77:16 *615:A 0
12 *77:16 *83:16 4.07715e-05
13 *77:16 *84:10 0
14 *77:16 *84:36 0
15 *77:16 *90:16 0
16 *77:16 *93:93 0
17 *77:16 *127:44 0
18 *77:16 *127:57 0
19 *77:16 *152:118 7.45997e-05
20 *475:B1 *77:12 5.50106e-05
21 *71:10 *77:16 0
22 *74:96 *77:16 0.000162133
*RES
1 *475:X *77:12 42.4018 
2 *77:12 *77:16 30.1111 
3 *77:16 *476:B1 23 
*END

*D_NET *78 0.00191188
*CONN
*I *490:C I *D sky130_fd_sc_hd__and3_1
*I *489:X O *D sky130_fd_sc_hd__and4_1
*CAP
1 *490:C 1.83048e-05
2 *489:X 0.000462092
3 *78:14 0.000480397
4 *490:C *96:48 1.95448e-05
5 *78:14 *483:B1 0.000102893
6 *78:14 *484:A1 4.32372e-05
7 *78:14 *634:A 0.000138718
8 *78:14 *86:16 0.000130045
9 *78:14 *86:99 5.21127e-05
10 *78:14 *95:94 5.3304e-05
11 *78:14 *146:12 0.000318411
12 *78:14 *148:75 0
13 *78:14 *189:10 5.50049e-05
14 *78:14 *200:18 3.78189e-05
*RES
1 *489:X *78:14 48.1086 
2 *78:14 *490:C 38.2279 
*END

*D_NET *79 0.00327304
*CONN
*I *504:C I *D sky130_fd_sc_hd__and3_1
*I *503:X O *D sky130_fd_sc_hd__and4_1
*CAP
1 *504:C 0
2 *503:X 0.00100023
3 *79:14 9.56474e-05
4 *79:6 0.00109588
5 *79:6 *503:D 0.000118696
6 *79:6 *91:72 2.77353e-05
7 *79:6 *94:49 0.000477634
8 *79:6 *206:14 9.05785e-05
9 *79:14 *501:B1 9.70259e-06
10 *79:14 *504:B 8.4047e-05
11 *79:14 *96:87 2.07921e-05
12 *79:14 *148:136 0.000191148
13 *79:14 *201:23 4.85126e-05
14 *579:RESET_B *79:6 1.24376e-05
*RES
1 *503:X *79:6 36.485 
2 *79:6 *79:14 32.8379 
3 *79:14 *504:C 23 
*END

*D_NET *80 0.0111404
*CONN
*I *509:A2 I *D sky130_fd_sc_hd__a21o_1
*I *511:A2 I *D sky130_fd_sc_hd__a21o_1
*I *507:A2 I *D sky130_fd_sc_hd__a21o_1
*I *513:A2 I *D sky130_fd_sc_hd__a21o_1
*I *517:A2 I *D sky130_fd_sc_hd__a21o_1
*I *515:A2 I *D sky130_fd_sc_hd__a21o_1
*I *506:X O *D sky130_fd_sc_hd__and4bb_2
*CAP
1 *509:A2 7.15356e-05
2 *511:A2 0
3 *507:A2 0
4 *513:A2 2.81195e-05
5 *517:A2 4.27449e-05
6 *515:A2 0.000406025
7 *506:X 0.000734386
8 *80:74 0.00021618
9 *80:55 0.000889765
10 *80:20 0.00074264
11 *80:16 0.000544479
12 *80:14 0.000988585
13 *80:12 0.000358049
14 *80:8 0.000928388
15 *509:A2 *595:CLK 5.79559e-05
16 *509:A2 *92:86 0.000100829
17 *513:A2 *94:12 5.56279e-05
18 *515:A2 *515:B1 0.000118741
19 *515:A2 *517:A1 9.80024e-05
20 *515:A2 *95:62 9.41704e-05
21 *515:A2 *95:70 5.3304e-05
22 *515:A2 *154:78 0.000144494
23 *517:A2 *600:CLK 5.3304e-05
24 *80:8 *506:A_N 5.67058e-05
25 *80:8 *545:A 1.32314e-05
26 *80:8 *90:16 0.000119313
27 *80:8 *152:137 4.34745e-05
28 *80:12 *116:12 1.85903e-05
29 *80:12 *191:10 1.01436e-05
30 *80:14 *191:10 0.000136486
31 *80:16 *85:14 0
32 *80:16 *85:33 0
33 *80:16 *85:111 0.000257175
34 *80:16 *191:10 0.000217734
35 *80:20 *585:CLK 8.20469e-05
36 *80:20 *85:111 0.000107764
37 *80:20 *85:117 0.000379497
38 *80:20 *96:32 4.35111e-05
39 *80:20 *187:10 0.00014411
40 *80:55 *507:B1 0.000180218
41 *80:55 *508:A2 2.09226e-05
42 *80:55 *594:CLK 0.000143535
43 *80:55 *85:14 0.000142173
44 *80:55 *92:106 0.000218612
45 *80:55 *134:10 8.71791e-05
46 *80:55 *147:107 1.46871e-05
47 *80:74 *507:B1 0.00011222
48 *80:74 *91:103 0.000141052
49 *80:74 *93:55 0
50 *80:74 *134:10 1.32314e-05
51 *80:74 *147:90 6.33094e-05
52 *80:74 *150:114 6.10775e-05
53 *80:74 *207:8 1.05235e-05
54 *47:8 *80:12 0.000112303
55 *72:10 *515:A2 0.000110358
56 *72:30 *80:12 0.000354988
57 *72:30 *80:16 0.000248918
58 *72:30 *80:20 0.000420743
59 *73:14 *80:8 0
60 *73:31 *80:8 0.000327247
*RES
1 *506:X *80:8 36.9821 
2 *80:8 *80:12 20.075 
3 *80:12 *80:14 1.90571 
4 *80:14 *80:16 6.48357 
5 *80:16 *80:20 24.3007 
6 *80:20 *515:A2 31.7414 
7 *80:20 *517:A2 24.1186 
8 *80:16 *513:A2 38.6214 
9 *80:14 *80:55 26.1443 
10 *80:55 *507:A2 23 
11 *80:55 *80:74 35.6964 
12 *80:74 *511:A2 23 
13 *80:12 *509:A2 40.0507 
*END

*D_NET *81 0.00346723
*CONN
*I *519:C I *D sky130_fd_sc_hd__and3_1
*I *518:X O *D sky130_fd_sc_hd__and4_1
*CAP
1 *519:C 0
2 *518:X 0.00127593
3 *81:20 0.000201107
4 *81:12 0.00147704
5 *81:12 *518:C 9.28078e-06
6 *81:12 *99:14 0
7 *81:20 *667:A 6.04112e-05
8 *81:20 *85:48 0.000127366
9 *81:20 *207:8 6.04112e-05
10 *81:20 *207:18 4.6318e-06
11 *81:20 *208:26 0.000117235
12 *81:20 *209:10 0.000133813
*RES
1 *518:X *81:12 48.8672 
2 *81:12 *81:20 28.9554 
3 *81:20 *519:C 23 
*END

*D_NET *82 0.00933303
*CONN
*I *522:A2 I *D sky130_fd_sc_hd__a21o_1
*I *526:A2 I *D sky130_fd_sc_hd__a21o_1
*I *524:A2 I *D sky130_fd_sc_hd__a21o_1
*I *532:A2 I *D sky130_fd_sc_hd__a21o_1
*I *530:A2 I *D sky130_fd_sc_hd__a21o_1
*I *528:A2 I *D sky130_fd_sc_hd__a21o_1
*I *521:X O *D sky130_fd_sc_hd__and4b_2
*CAP
1 *522:A2 0.000143083
2 *526:A2 0.000152648
3 *524:A2 0
4 *532:A2 2.79296e-05
5 *530:A2 0
6 *528:A2 4.01155e-05
7 *521:X 0.000188896
8 *82:66 0.000635293
9 *82:59 0.000867122
10 *82:42 0.00096724
11 *82:33 0.000435067
12 *82:25 0.00107586
13 *82:12 0.000816249
14 *82:8 0.000735991
15 *522:A2 *525:A1 5.50049e-05
16 *522:A2 *88:80 5.50049e-05
17 *522:A2 *157:90 0
18 *522:A2 *162:10 2.76611e-06
19 *522:A2 *164:8 8.82524e-05
20 *526:A2 *526:B1 0.0002246
21 *526:A2 *608:A 9.84851e-05
22 *532:A2 *532:B1 5.50049e-05
23 *82:8 *88:22 3.70187e-05
24 *82:8 *94:117 0
25 *82:8 *151:27 0
26 *82:8 *151:31 0
27 *82:8 *153:36 0
28 *82:8 *159:12 0
29 *82:12 *88:35 0.000169364
30 *82:12 *216:10 0.000143655
31 *82:25 *591:D 0.000128391
32 *82:25 *88:35 8.06804e-06
33 *82:25 *126:12 2.50109e-05
34 *82:33 *530:A1 0.000135359
35 *82:33 *95:132 6.17437e-06
36 *82:33 *127:12 1.76557e-05
37 *82:33 *138:50 0.000191902
38 *82:33 *156:115 0.00032696
39 *82:33 *157:10 0.000131159
40 *82:33 *217:10 5.50106e-05
41 *82:42 *156:115 7.80251e-05
42 *82:42 *157:10 8.26569e-05
43 *82:59 *523:B1 0
44 *82:59 *524:A1 5.50106e-05
45 *82:59 *532:B1 5.50106e-05
46 *82:59 *138:50 8.26672e-05
47 *82:59 *156:115 0
48 *82:59 *161:10 0.000138727
49 *82:66 *88:18 0.00019747
50 *82:66 *88:22 0.000185104
51 *82:66 *91:32 5.90634e-05
52 *82:66 *153:36 0
53 *82:66 *157:90 0
54 *82:66 *159:12 0
55 *82:66 *164:8 1.58805e-05
56 *82:66 *216:10 7.28526e-05
57 *30:8 *82:59 0.000113911
58 *52:8 *82:59 5.61311e-05
59 *57:10 *82:33 0.00010018
*RES
1 *521:X *82:8 40.9621 
2 *82:8 *82:12 19.9093 
3 *82:12 *528:A2 23.8493 
4 *82:12 *82:25 22.7886 
5 *82:25 *82:33 27.4493 
6 *82:33 *530:A2 23 
7 *82:25 *82:42 17.2579 
8 *82:42 *532:A2 23.6214 
9 *82:42 *82:59 47.5036 
10 *82:59 *524:A2 23 
11 *82:8 *82:66 8.24429 
12 *82:66 *526:A2 41.48 
13 *82:66 *522:A2 41.2314 
*END

*D_NET *83 0.00518212
*CONN
*I *521:A_N I *D sky130_fd_sc_hd__and4b_2
*I *471:B_N I *D sky130_fd_sc_hd__and4bb_2
*I *506:B_N I *D sky130_fd_sc_hd__and4bb_2
*I *474:C I *D sky130_fd_sc_hd__nor4b_1
*I *473:A_N I *D sky130_fd_sc_hd__and4b_1
*I *603:Q O *D sky130_fd_sc_hd__dfrtp_1
*CAP
1 *521:A_N 0
2 *471:B_N 0.000283058
3 *506:B_N 0
4 *474:C 9.24334e-05
5 *473:A_N 0
6 *603:Q 6.66798e-05
7 *83:49 0.000491951
8 *83:36 0.000304547
9 *83:23 0.000188088
10 *83:16 0.000558697
11 *83:6 0.000625377
12 *471:B_N *471:C 0.000414816
13 *471:B_N *616:A 0.000141954
14 *471:B_N *152:14 2.02872e-05
15 *474:C *93:93 8.94394e-05
16 *474:C *127:14 0.000228001
17 *474:C *152:137 0
18 *83:16 *473:B 0.000138727
19 *83:16 *473:C 2.4754e-05
20 *83:16 *603:D 6.92691e-05
21 *83:16 *84:10 9.255e-05
22 *83:16 *91:149 5.50049e-05
23 *83:16 *127:14 2.26011e-05
24 *83:16 *127:20 2.92669e-05
25 *83:16 *150:35 9.84794e-05
26 *83:36 *93:93 0.000125413
27 *83:49 *616:A 7.56445e-05
28 *83:49 *93:93 0.000250445
29 *83:49 *151:31 1.34354e-05
30 *603:RESET_B *474:C 2.02872e-05
31 *603:RESET_B *83:6 8.60475e-05
32 *603:RESET_B *83:16 4.70852e-05
33 *655:A *474:C 8.6949e-05
34 *74:6 *471:B_N 8.6949e-05
35 *74:12 *471:B_N 0.00017761
36 *76:12 *474:C 0.000135504
37 *77:16 *83:16 4.07715e-05
*RES
1 *603:Q *83:6 24.0979 
2 *83:6 *83:16 40.15 
3 *83:16 *473:A_N 23 
4 *83:6 *83:23 15 
5 *83:23 *474:C 41.7286 
6 *83:23 *83:36 1.90571 
7 *83:36 *506:B_N 38 
8 *83:36 *83:49 19.2879 
9 *83:49 *471:B_N 30.2914 
10 *83:49 *521:A_N 23 
*END

*D_NET *84 0.0119045
*CONN
*I *608:A I *D sky130_fd_sc_hd__clkbuf_16
*I *607:A I *D sky130_fd_sc_hd__clkbuf_16
*I *606:A I *D sky130_fd_sc_hd__clkbuf_16
*I *605:A I *D sky130_fd_sc_hd__clkbuf_16
*I *604:X O *D sky130_fd_sc_hd__clkbuf_16
*CAP
1 *608:A 0.000269659
2 *607:A 0.000629868
3 *606:A 0
4 *605:A 0.000738031
5 *604:X 0
6 *84:36 0.00134768
7 *84:27 0.000415502
8 *84:10 0.00151673
9 *84:6 0.000811358
10 *605:A *618:A 5.50106e-05
11 *605:A *85:14 3.22051e-05
12 *605:A *85:111 4.65096e-05
13 *605:A *96:36 0.000615876
14 *605:A *96:48 3.88669e-05
15 *605:A *147:69 5.9763e-05
16 *605:A *147:103 0.000216417
17 *605:A *150:43 2.43944e-05
18 *605:A *150:97 3.22465e-05
19 *605:A *191:10 0.000247714
20 *607:A *493:A1 0.000178517
21 *607:A *92:80 8.06804e-06
22 *607:A *110:27 5.3304e-05
23 *607:A *128:8 5.67058e-05
24 *607:A *148:140 5.50049e-05
25 *607:A *152:102 1.41129e-05
26 *608:A *526:B1 6.82416e-05
27 *608:A *615:A 0.00014196
28 *608:A *151:10 8.82787e-05
29 *608:A *215:10 0.000361027
30 *84:10 *473:B 0
31 *84:10 *91:149 1.02561e-05
32 *84:10 *154:21 0.000108672
33 *84:10 *155:46 0.000658703
34 *84:27 *562:A 0.00014196
35 *84:27 *93:93 5.93381e-05
36 *84:27 *96:48 0.000305345
37 *84:27 *147:109 7.75329e-06
38 *84:27 *156:58 0.000165593
39 *84:36 *615:A 0.000711682
40 *84:36 *90:16 0.000338954
41 *84:36 *152:22 0.000243578
42 *84:36 *155:46 0.000304041
43 *84:36 *185:12 0.000534508
44 *526:A2 *608:A 9.84851e-05
45 *77:16 *84:10 0
46 *77:16 *84:36 0
47 *83:16 *84:10 9.255e-05
*RES
1 *604:X *84:6 38 
2 *84:6 *84:10 25.3571 
3 *84:10 *605:A 41.27 
4 *84:10 *84:27 40.3779 
5 *84:27 *606:A 23 
6 *84:6 *84:36 30.6393 
7 *84:36 *607:A 32.6736 
8 *84:36 *608:A 30.7679 
*END

*D_NET *85 0.0118338
*CONN
*I *599:CLK I *D sky130_fd_sc_hd__dfrtp_4
*I *600:CLK I *D sky130_fd_sc_hd__dfrtp_4
*I *585:CLK I *D sky130_fd_sc_hd__dfrtp_1
*I *595:CLK I *D sky130_fd_sc_hd__dfstp_2
*I *581:CLK I *D sky130_fd_sc_hd__dfrtp_1
*I *583:CLK I *D sky130_fd_sc_hd__dfrtp_1
*I *584:CLK I *D sky130_fd_sc_hd__dfrtp_1
*I *582:CLK I *D sky130_fd_sc_hd__dfrtp_1
*I *580:CLK I *D sky130_fd_sc_hd__dfrtp_1
*I *594:CLK I *D sky130_fd_sc_hd__dfrtp_1
*I *605:X O *D sky130_fd_sc_hd__clkbuf_16
*CAP
1 *599:CLK 0
2 *600:CLK 4.85152e-05
3 *585:CLK 0.000718492
4 *595:CLK 8.24813e-05
5 *581:CLK 0
6 *583:CLK 0
7 *584:CLK 0.000518125
8 *582:CLK 3.59922e-05
9 *580:CLK 9.16478e-05
10 *594:CLK 8.79124e-05
11 *605:X 0
12 *85:117 0.00101626
13 *85:111 0.000631576
14 *85:89 9.05609e-05
15 *85:61 0.00065718
16 *85:48 0.000610111
17 *85:37 0.000902103
18 *85:35 0.000697449
19 *85:33 0.00059459
20 *85:14 0.000617639
21 *85:4 0.000631433
22 *580:CLK *207:18 6.17437e-06
23 *584:CLK *547:A 4.84101e-05
24 *585:CLK *516:A3 1.85903e-05
25 *585:CLK *585:D 4.46353e-05
26 *585:CLK *96:32 2.8658e-06
27 *585:CLK *183:10 1.67271e-05
28 *594:CLK *92:106 0
29 *595:CLK *92:86 1.02535e-05
30 *595:CLK *92:106 0.000112337
31 *595:CLK *116:12 0.000144063
32 *85:14 *594:D 6.10551e-06
33 *85:14 *147:103 3.54728e-05
34 *85:14 *147:107 2.1369e-05
35 *85:14 *150:43 0
36 *85:33 *92:106 9.15678e-05
37 *85:33 *116:18 5.44889e-06
38 *85:33 *154:47 1.08978e-05
39 *85:33 *170:10 1.46784e-05
40 *85:35 *92:106 5.3304e-05
41 *85:35 *115:27 0.000202707
42 *85:35 *116:12 7.58527e-05
43 *85:35 *154:47 0.00011795
44 *85:35 *208:10 1.56446e-05
45 *85:35 *208:16 0.000263814
46 *85:35 *208:26 8.48502e-06
47 *85:37 *115:12 9.4713e-05
48 *85:37 *115:27 2.02872e-05
49 *85:37 *207:18 2.02872e-05
50 *85:37 *208:26 0.000149864
51 *85:48 *518:A 0
52 *85:48 *207:18 0.000141879
53 *85:48 *209:10 0
54 *85:89 *581:D 1.69668e-05
55 *85:89 *93:37 0.000191166
56 *85:89 *134:10 0.000138727
57 *85:111 *518:C 0
58 *85:111 *518:D 0
59 *85:117 *518:D 0
60 *85:117 *183:10 2.44742e-05
61 seg2[3] *85:48 5.58873e-06
62 *509:A2 *595:CLK 5.79559e-05
63 *517:A2 *600:CLK 5.3304e-05
64 *580:RESET_B *85:35 2.18409e-05
65 *580:RESET_B *85:37 9.16355e-05
66 *585:RESET_B *585:CLK 8.97405e-05
67 *605:A *85:14 3.22051e-05
68 *605:A *85:111 4.65096e-05
69 *72:10 *600:CLK 3.76965e-05
70 *80:16 *85:14 0
71 *80:16 *85:33 0
72 *80:16 *85:111 0.000257175
73 *80:20 *585:CLK 8.20469e-05
74 *80:20 *85:111 0.000107764
75 *80:20 *85:117 0.000379497
76 *80:55 *594:CLK 0.000143535
77 *80:55 *85:14 0.000142173
78 *81:20 *85:48 0.000127366
*RES
1 *605:X *85:4 23 
2 *85:4 *85:14 34.8057 
3 *85:14 *594:CLK 25.0714 
4 *85:14 *85:33 33.8529 
5 *85:33 *85:35 6.33857 
6 *85:35 *85:37 8.24429 
7 *85:37 *580:CLK 24.5743 
8 *85:37 *85:48 24.1246 
9 *85:48 *582:CLK 38.9425 
10 *85:48 *85:61 2.78607 
11 *85:61 *584:CLK 47.5907 
12 *85:61 *583:CLK 38 
13 *85:35 *85:89 32.61 
14 *85:89 *581:CLK 23 
15 *85:33 *595:CLK 26.0036 
16 *85:4 *85:111 23.3479 
17 *85:111 *85:117 6.19357 
18 *85:117 *585:CLK 47.7979 
19 *85:117 *600:CLK 39.1186 
20 *85:111 *599:CLK 38 
*END

*D_NET *86 0.0110112
*CONN
*I *569:CLK I *D sky130_fd_sc_hd__dfrtp_1
*I *592:CLK I *D sky130_fd_sc_hd__dfrtp_1
*I *568:CLK I *D sky130_fd_sc_hd__dfrtp_1
*I *609:A I *D sky130_fd_sc_hd__clkbuf_4
*I *571:CLK I *D sky130_fd_sc_hd__dfrtp_1
*I *603:CLK I *D sky130_fd_sc_hd__dfrtp_1
*I *598:CLK I *D sky130_fd_sc_hd__dfrtp_4
*I *573:CLK I *D sky130_fd_sc_hd__dfrtp_1
*I *570:CLK I *D sky130_fd_sc_hd__dfrtp_1
*I *572:CLK I *D sky130_fd_sc_hd__dfrtp_1
*I *606:X O *D sky130_fd_sc_hd__clkbuf_16
*CAP
1 *569:CLK 7.70667e-05
2 *592:CLK 0
3 *568:CLK 0.000102836
4 *609:A 0
5 *571:CLK 2.34823e-05
6 *603:CLK 0.000386621
7 *598:CLK 0.000123032
8 *573:CLK 5.83287e-05
9 *570:CLK 0.000165675
10 *572:CLK 0
11 *606:X 0.000189389
12 *86:116 0.000190271
13 *86:99 0.000338038
14 *86:65 0.000834652
15 *86:59 0.000970914
16 *86:39 0.000420052
17 *86:26 0.000321203
18 *86:20 0.000807837
19 *86:16 0.000287774
20 *86:10 0.000538912
21 *568:CLK *490:B 6.00553e-05
22 *568:CLK *96:48 0.000148744
23 *568:CLK *156:52 9.84851e-05
24 *568:CLK *195:14 2.93845e-05
25 *570:CLK *483:B1 0.000143655
26 *570:CLK *570:D 0.000261956
27 *570:CLK *94:91 5.50106e-05
28 *570:CLK *148:49 2.4754e-05
29 *570:CLK *178:10 2.63049e-05
30 *573:CLK *483:B1 4.17736e-05
31 *573:CLK *148:49 2.18409e-05
32 *598:CLK *641:A 1.37232e-05
33 *598:CLK *94:10 0.000273778
34 *603:CLK *91:20 0.000196549
35 *603:CLK *102:10 0.000110922
36 *603:CLK *155:21 0.000161121
37 *603:CLK *155:46 0.000282316
38 *603:CLK *192:12 0.000249862
39 *86:10 *94:100 0.000178517
40 *86:16 *482:A2 0.000100733
41 *86:16 *634:A 1.01436e-05
42 *86:16 *147:109 0
43 *86:16 *197:10 5.3304e-05
44 *86:16 *198:10 5.41385e-05
45 *86:20 *147:109 0.000128583
46 *86:20 *197:10 0.000111852
47 *86:26 *570:D 0.000166522
48 *86:26 *96:117 2.93747e-05
49 *86:26 *147:109 0.000274543
50 *86:26 *197:10 0.000105799
51 *86:39 *483:B1 0.000216721
52 *86:39 *570:D 3.71198e-05
53 *86:39 *96:117 2.80512e-05
54 *86:39 *199:24 8.90445e-05
55 *86:59 *571:D 0.000221737
56 *86:59 *95:94 1.38758e-05
57 *86:65 *564:A 0.000114092
58 *86:65 *95:94 2.65879e-05
59 *86:65 *155:21 0.000325002
60 *86:65 *192:12 2.22079e-05
61 *86:99 *146:12 1.4471e-05
62 *86:99 *147:109 0
63 *86:116 *97:10 4.58924e-05
64 *86:116 *146:12 6.7177e-06
65 *86:116 *147:109 0
66 *86:116 *156:52 9.39159e-05
67 *65:10 *86:65 0.000323797
68 *78:14 *86:16 0.000130045
69 *78:14 *86:99 5.21127e-05
*RES
1 *606:X *86:10 41.5007 
2 *86:10 *86:16 20.7171 
3 *86:16 *86:20 16.9057 
4 *86:20 *86:26 19.2879 
5 *86:26 *572:CLK 23 
6 *86:26 *86:39 34.5364 
7 *86:39 *570:CLK 27.4329 
8 *86:39 *573:CLK 24.0979 
9 *86:20 *86:59 23.7414 
10 *86:59 *86:65 23.7829 
11 *86:65 *598:CLK 41.5007 
12 *86:65 *603:CLK 48.7093 
13 *86:59 *571:CLK 23.4971 
14 *86:16 *609:A 23 
15 *86:10 *86:99 2.25786 
16 *86:99 *568:CLK 41.1693 
17 *86:99 *86:116 17.9621 
18 *86:116 *592:CLK 23 
19 *86:116 *569:CLK 24.0979 
*END

*D_NET *87 0.00731094
*CONN
*I *575:CLK I *D sky130_fd_sc_hd__dfrtp_1
*I *574:CLK I *D sky130_fd_sc_hd__dfrtp_1
*I *576:CLK I *D sky130_fd_sc_hd__dfrtp_1
*I *578:CLK I *D sky130_fd_sc_hd__dfrtp_1
*I *577:CLK I *D sky130_fd_sc_hd__dfrtp_1
*I *593:CLK I *D sky130_fd_sc_hd__dfrtp_1
*I *579:CLK I *D sky130_fd_sc_hd__dfrtp_1
*I *610:A I *D sky130_fd_sc_hd__clkinv_2
*I *607:X O *D sky130_fd_sc_hd__clkbuf_16
*CAP
1 *575:CLK 9.68218e-05
2 *574:CLK 0
3 *576:CLK 4.24211e-05
4 *578:CLK 0.000147732
5 *577:CLK 0.000136501
6 *593:CLK 0.000120506
7 *579:CLK 2.86351e-05
8 *610:A 0
9 *607:X 0
10 *87:49 0.000698094
11 *87:47 0.000991911
12 *87:41 0.00124748
13 *87:37 0.000999868
14 *87:12 0.000191836
15 *87:8 0.000462549
16 *87:6 0.000370037
17 *577:CLK *663:A 6.93449e-05
18 *577:CLK *204:12 0
19 *579:CLK *503:D 0.000145238
20 *579:CLK *91:72 7.87877e-05
21 *593:CLK *628:A 0.000232409
22 *593:CLK *93:33 0.000272046
23 *593:CLK *155:63 2.79628e-05
24 *593:CLK *155:71 8.39736e-05
25 *87:8 *91:110 0.000123919
26 *87:8 *132:14 0
27 *87:12 *91:82 2.60152e-05
28 *87:12 *91:110 7.461e-05
29 *87:12 *112:14 1.01436e-05
30 *87:12 *132:14 0
31 *87:37 *492:A1 1.22906e-05
32 *87:37 *91:110 4.60263e-05
33 *87:37 *109:8 0.000139647
34 *87:47 *194:10 6.6869e-05
35 *87:49 *94:55 0
36 *87:49 *132:26 0
37 *87:49 *155:79 5.25841e-05
38 seg1[2] *87:49 7.57281e-06
39 *574:RESET_B *575:CLK 5.41288e-05
40 *574:RESET_B *87:41 1.49083e-05
41 *13:14 *87:47 6.17437e-06
42 *17:14 *578:CLK 3.7122e-06
43 *42:8 *87:47 0
44 *42:8 *87:49 0
45 *43:10 *577:CLK 1.7992e-05
46 *43:10 *87:49 4.59027e-05
47 *44:8 *87:12 0
48 *74:73 *87:37 0.000164282
*RES
1 *607:X *87:6 38 
2 *87:6 *87:8 3.66643 
3 *87:8 *87:12 17.9621 
4 *87:12 *610:A 23 
5 *87:12 *579:CLK 24.5743 
6 *87:8 *593:CLK 43.3857 
7 *87:6 *87:37 19.0186 
8 *87:37 *87:41 9.57 
9 *87:41 *87:47 24.7357 
10 *87:47 *87:49 8.24429 
11 *87:49 *577:CLK 40.9621 
12 *87:49 *578:CLK 40.0507 
13 *87:47 *576:CLK 38.6214 
14 *87:41 *574:CLK 23 
15 *87:37 *575:CLK 24.9471 
*END

*D_NET *88 0.0114907
*CONN
*I *587:CLK I *D sky130_fd_sc_hd__dfrtp_1
*I *586:CLK I *D sky130_fd_sc_hd__dfrtp_1
*I *596:CLK I *D sky130_fd_sc_hd__dfrtp_4
*I *588:CLK I *D sky130_fd_sc_hd__dfrtp_1
*I *597:CLK I *D sky130_fd_sc_hd__dfrtp_4
*I *611:A I *D sky130_fd_sc_hd__clkbuf_4
*I *589:CLK I *D sky130_fd_sc_hd__dfrtp_1
*I *601:CLK I *D sky130_fd_sc_hd__dfrtp_1
*I *591:CLK I *D sky130_fd_sc_hd__dfrtp_1
*I *590:CLK I *D sky130_fd_sc_hd__dfrtp_1
*I *602:CLK I *D sky130_fd_sc_hd__dfrtp_1
*I *608:X O *D sky130_fd_sc_hd__clkbuf_16
*CAP
1 *587:CLK 0
2 *586:CLK 0.000480747
3 *596:CLK 2.1727e-05
4 *588:CLK 0
5 *597:CLK 1.89342e-05
6 *611:A 0
7 *589:CLK 0
8 *601:CLK 0.000685972
9 *591:CLK 2.73674e-05
10 *590:CLK 0.000243532
11 *602:CLK 0.000171804
12 *608:X 0.000173764
13 *88:105 0.000177757
14 *88:97 0.000643142
15 *88:93 0.00108718
16 *88:80 0.000403891
17 *88:78 0.000305519
18 *88:55 0.000685972
19 *88:35 0.000592512
20 *88:22 0.000625124
21 *88:18 0.00018977
22 *88:14 0.000343794
23 *88:8 0.000542829
24 *586:CLK *91:51 2.92911e-06
25 *590:CLK *529:A2 4.15652e-05
26 *590:CLK *94:117 0
27 *590:CLK *94:130 3.47781e-05
28 *590:CLK *95:132 7.55491e-05
29 *590:CLK *96:69 0
30 *590:CLK *126:12 0
31 *590:CLK *148:117 6.16439e-05
32 *590:CLK *153:36 3.3746e-05
33 *591:CLK *94:130 5.46706e-05
34 *591:CLK *96:69 0
35 *591:CLK *218:8 0
36 *596:CLK *157:59 4.00259e-06
37 *597:CLK *92:53 9.84794e-05
38 *597:CLK *93:87 5.70419e-05
39 *601:CLK *89:8 6.70361e-05
40 *601:CLK *185:12 6.17437e-06
41 *602:CLK *91:30 0.00022109
42 *88:14 *151:69 0.000268074
43 *88:14 *151:73 9.42761e-05
44 *88:14 *157:90 0.0002499
45 *88:18 *91:32 9.6289e-05
46 *88:22 *91:32 9.28945e-05
47 *88:22 *151:27 6.7177e-06
48 *88:35 *94:117 9.67842e-05
49 *88:35 *94:130 5.3304e-05
50 *88:78 *587:D 2.76611e-06
51 *88:78 *151:73 3.72624e-05
52 *88:78 *151:79 0
53 *88:78 *157:90 0.000155077
54 *88:80 *522:B1 5.50049e-05
55 *88:80 *525:A1 0.000197405
56 *88:80 *92:53 0.000481943
57 *88:80 *93:87 2.18409e-05
58 *88:80 *213:10 2.64616e-05
59 *88:93 *123:12 0
60 *88:93 *142:10 0.000112169
61 *88:93 *188:10 0
62 *88:97 *596:D 5.10805e-05
63 *88:105 *596:D 2.18409e-05
64 *88:105 *155:121 0
65 *88:105 *157:59 0.00010018
66 *88:105 *188:10 0
67 *88:105 *215:10 4.59027e-05
68 *522:A2 *88:80 5.50049e-05
69 *596:RESET_B *586:CLK 0.000260551
70 *601:D *601:CLK 6.70361e-05
71 *73:33 *590:CLK 6.38845e-05
72 *82:8 *88:22 3.70187e-05
73 *82:12 *88:35 0.000169364
74 *82:25 *88:35 8.06804e-06
75 *82:66 *88:18 0.00019747
76 *82:66 *88:22 0.000185104
*RES
1 *608:X *88:8 40.0507 
2 *88:8 *88:14 22.0221 
3 *88:14 *88:18 17.61 
4 *88:18 *88:22 17.9621 
5 *88:22 *602:CLK 26.48 
6 *88:22 *88:35 21.7114 
7 *88:35 *590:CLK 43.075 
8 *88:35 *591:CLK 38.8493 
9 *88:18 *88:55 15 
10 *88:55 *601:CLK 33.6471 
11 *88:55 *589:CLK 23 
12 *88:14 *611:A 23 
13 *88:8 *88:78 17.2579 
14 *88:78 *88:80 6.815 
15 *88:80 *597:CLK 24.0979 
16 *88:80 *88:93 33.6664 
17 *88:93 *88:97 5.88286 
18 *88:97 *88:105 33.8321 
19 *88:105 *588:CLK 23 
20 *88:97 *596:CLK 23.4971 
21 *88:93 *586:CLK 29.7114 
22 *88:78 *587:CLK 23 
*END

*D_NET *89 0.00237613
*CONN
*I *617:A I *D sky130_fd_sc_hd__clkbuf_2
*I *616:A I *D sky130_fd_sc_hd__buf_2
*I *601:Q O *D sky130_fd_sc_hd__dfrtp_1
*CAP
1 *617:A 0.000113634
2 *616:A 0.000231863
3 *601:Q 0.000137747
4 *89:8 0.000483244
5 *616:A *471:C 5.50049e-05
6 *616:A *521:B 0.000180224
7 *616:A *93:93 0.000110657
8 *616:A *151:27 6.07003e-05
9 *616:A *151:31 3.3123e-05
10 *616:A *157:81 0.000160182
11 *617:A *93:93 8.15327e-05
12 *617:A *151:23 2.93747e-05
13 *617:A *157:81 0.000247687
14 *471:B_N *616:A 0.000141954
15 *601:CLK *89:8 6.70361e-05
16 *67:10 *616:A 8.62876e-05
17 *67:10 *617:A 8.02348e-05
18 *83:49 *616:A 7.56445e-05
*RES
1 *601:Q *89:8 39.5743 
2 *89:8 *616:A 45.25 
3 *89:8 *617:A 41.9357 
*END

*D_NET *90 0.00538342
*CONN
*I *615:A I *D sky130_fd_sc_hd__clkbuf_2
*I *614:A I *D sky130_fd_sc_hd__buf_2
*I *602:Q O *D sky130_fd_sc_hd__dfrtp_1
*CAP
1 *615:A 0.0003679
2 *614:A 0
3 *602:Q 0.000289199
4 *90:16 0.000433041
5 *90:8 0.00109014
6 *615:A *163:8 0.000140958
7 *90:8 *91:30 5.85822e-06
8 *90:8 *152:22 4.61321e-05
9 *90:16 *506:A_N 5.50049e-05
10 *90:16 *152:137 0.000332645
11 *602:RESET_B *90:8 1.59094e-05
12 *608:A *615:A 0.00014196
13 *73:31 *90:16 0.000781059
14 *74:96 *615:A 0.000429621
15 *74:96 *90:16 8.4047e-05
16 *77:16 *615:A 0
17 *77:16 *90:16 0
18 *80:8 *90:16 0.000119313
19 *84:36 *615:A 0.000711682
20 *84:36 *90:16 0.000338954
*RES
1 *602:Q *90:8 41.48 
2 *90:8 *90:16 28.9407 
3 *90:16 *614:A 23 
4 *90:8 *615:A 49.2271 
*END

*D_NET *91 0.024737
*CONN
*I *477:A3 I *D sky130_fd_sc_hd__a31o_1
*I *478:A1 I *D sky130_fd_sc_hd__a21o_1
*I *639:A I *D sky130_fd_sc_hd__dlygate4sd3_1
*I *492:A1 I *D sky130_fd_sc_hd__a21o_1
*I *491:A3 I *D sky130_fd_sc_hd__a31o_1
*I *507:A1 I *D sky130_fd_sc_hd__a21o_1
*I *505:A3 I *D sky130_fd_sc_hd__a31o_1
*I *520:A3 I *D sky130_fd_sc_hd__a31o_1
*I *522:A1 I *D sky130_fd_sc_hd__a21o_1
*I *595:Q O *D sky130_fd_sc_hd__dfstp_2
*CAP
1 *477:A3 0
2 *478:A1 0.000171257
3 *639:A 0
4 *492:A1 0.000294389
5 *491:A3 0.00011754
6 *507:A1 0
7 *505:A3 0.000103345
8 *520:A3 0
9 *522:A1 0.00011508
10 *595:Q 2.55761e-05
11 *91:149 0.00206706
12 *91:110 0.000739085
13 *91:103 0.000359558
14 *91:84 0.000462903
15 *91:82 0.000781578
16 *91:72 0.00216575
17 *91:64 0.00120974
18 *91:51 0.00071569
19 *91:32 0.00121095
20 *91:30 0.00121023
21 *91:20 0.00159741
22 *91:6 0.002536
23 *478:A1 *138:50 0.000205473
24 *478:A1 *149:14 0.000384805
25 *491:A3 *491:B1 5.41288e-05
26 *492:A1 *491:A1 9.21347e-06
27 *492:A1 *201:12 9.5877e-05
28 *505:A3 *469:A 0
29 *505:A3 *666:A 2.98648e-05
30 *505:A3 *150:114 5.67058e-05
31 *522:A1 *525:A1 0.000137651
32 *91:6 *473:C 1.24376e-05
33 *91:6 *92:126 2.02872e-05
34 *91:6 *150:35 2.93845e-05
35 *91:20 *92:80 0
36 *91:20 *93:20 0
37 *91:20 *155:46 0.000813702
38 *91:20 *192:12 1.6374e-05
39 *91:30 *152:22 0.000135037
40 *91:32 *151:27 0.000404986
41 *91:32 *153:19 0
42 *91:32 *157:81 1.12487e-05
43 *91:32 *164:8 0.000164282
44 *91:51 *552:A 6.78463e-05
45 *91:51 *560:A 1.02561e-05
46 *91:51 *587:D 0.000223034
47 *91:51 *123:12 8.06039e-05
48 *91:51 *151:79 4.14048e-05
49 *91:51 *153:19 0
50 *91:51 *153:92 0.000171906
51 *91:51 *157:90 5.92152e-05
52 *91:51 *164:8 0.00021356
53 *91:51 *213:10 6.48142e-05
54 *91:64 *543:A 0.00010018
55 *91:64 *93:20 0
56 *91:64 *155:46 8.52481e-05
57 *91:72 *503:D 5.81168e-05
58 *91:72 *543:A 0.00014196
59 *91:72 *112:14 2.64616e-05
60 *91:72 *206:14 6.41046e-05
61 *91:82 *93:37 0
62 *91:82 *94:49 3.04021e-05
63 *91:82 *112:14 0.000494031
64 *91:82 *130:8 0.000400204
65 *91:82 *133:8 0
66 *91:82 *152:32 0
67 *91:103 *666:A 1.21972e-05
68 *91:103 *93:37 0.000190941
69 *91:103 *150:114 0.000409481
70 *91:110 *491:A1 4.48258e-05
71 *91:110 *495:A1 3.21791e-05
72 *91:110 *111:10 6.68587e-05
73 *91:110 *152:32 0
74 *91:149 *473:B 3.41998e-06
75 *91:149 *473:C 0.00016778
76 *91:149 *147:176 0.000209708
77 *91:149 *150:35 6.53382e-05
78 seg0[1] *91:149 0.000294538
79 *579:CLK *91:72 7.87877e-05
80 *579:RESET_B *91:72 0.00021536
81 *586:CLK *91:51 2.92911e-06
82 *596:RESET_B *91:51 5.84847e-05
83 *602:CLK *91:30 0.00022109
84 *603:CLK *91:20 0.000196549
85 *67:10 *91:30 5.50049e-05
86 *68:10 *91:20 6.16439e-05
87 *68:10 *91:64 0.000139647
88 *73:8 *91:82 3.81391e-05
89 *74:67 *491:A3 0.000223692
90 *74:73 *492:A1 0.000379403
91 *79:6 *91:72 2.77353e-05
92 *80:74 *91:103 0.000141052
93 *82:66 *91:32 5.90634e-05
94 *83:16 *91:149 5.50049e-05
95 *84:10 *91:149 1.02561e-05
96 *87:8 *91:110 0.000123919
97 *87:12 *91:82 2.60152e-05
98 *87:12 *91:110 7.461e-05
99 *87:37 *492:A1 1.22906e-05
100 *87:37 *91:110 4.60263e-05
101 *88:18 *91:32 9.6289e-05
102 *88:22 *91:32 9.28945e-05
103 *90:8 *91:30 5.85822e-06
*RES
1 *595:Q *91:6 23.6214 
2 *91:6 *91:20 29.1479 
3 *91:20 *91:30 41.2686 
4 *91:30 *91:32 10.005 
5 *91:32 *522:A1 39.5743 
6 *91:32 *91:51 44.355 
7 *91:51 *520:A3 38 
8 *91:20 *91:64 18.9564 
9 *91:64 *91:72 30.7843 
10 *91:72 *91:82 46.3436 
11 *91:82 *91:84 15 
12 *91:84 *505:A3 25.0714 
13 *91:84 *91:103 38.0993 
14 *91:103 *507:A1 23 
15 *91:72 *91:110 7.18786 
16 *91:110 *491:A3 41.0243 
17 *91:110 *492:A1 44.525 
18 *91:64 *639:A 23 
19 *91:6 *91:149 37.5494 
20 *91:149 *478:A1 43.7793 
21 *91:149 *477:A3 38 
*END

*D_NET *92 0.0200631
*CONN
*I *494:A1 I *D sky130_fd_sc_hd__a21o_1
*I *480:A1 I *D sky130_fd_sc_hd__a21o_1
*I *479:A3 I *D sky130_fd_sc_hd__a31o_1
*I *509:A1 I *D sky130_fd_sc_hd__a21o_1
*I *508:A3 I *D sky130_fd_sc_hd__a31o_1
*I *493:A3 I *D sky130_fd_sc_hd__a31o_1
*I *642:A I *D sky130_fd_sc_hd__dlygate4sd3_1
*I *523:A3 I *D sky130_fd_sc_hd__a31o_1
*I *524:A1 I *D sky130_fd_sc_hd__a21o_1
*I *596:Q O *D sky130_fd_sc_hd__dfrtp_4
*CAP
1 *494:A1 0.000362719
2 *480:A1 0
3 *479:A3 0
4 *509:A1 0
5 *508:A3 0
6 *493:A3 0.000134675
7 *642:A 9.49955e-05
8 *523:A3 0
9 *524:A1 0.000218215
10 *596:Q 1.73916e-06
11 *92:138 0.00041504
12 *92:126 0.00152845
13 *92:106 0.000415332
14 *92:86 0.000951487
15 *92:82 0.00164957
16 *92:80 0.000834287
17 *92:65 0.00108158
18 *92:61 0.000554304
19 *92:53 0.00134325
20 *92:20 0.000548917
21 *92:12 0.000601787
22 *92:8 0.00144211
23 *493:A3 *493:A1 1.21972e-05
24 *493:A3 *152:102 2.64616e-05
25 *494:A1 *494:B1 7.50407e-05
26 *494:A1 *110:12 3.7122e-06
27 *494:A1 *202:8 0.000183443
28 *524:A1 *523:A2 5.67943e-05
29 *524:A1 *523:B1 5.50049e-05
30 *524:A1 *121:16 0
31 *524:A1 *151:100 1.32939e-05
32 *524:A1 *214:8 0.000228001
33 *642:A *552:A 5.61414e-05
34 *92:8 *162:10 2.5343e-05
35 *92:12 *552:A 1.95903e-05
36 *92:12 *123:12 0
37 *92:12 *157:90 5.11935e-06
38 *92:12 *162:10 3.71611e-05
39 *92:12 *164:8 5.66938e-05
40 *92:20 *523:A2 0.00051819
41 *92:20 *560:A 0.000139357
42 *92:20 *649:A 0.000140259
43 *92:20 *121:16 5.41288e-05
44 *92:20 *153:92 9.58714e-05
45 *92:20 *162:10 0.000100488
46 *92:20 *214:8 0.000128612
47 *92:53 *93:8 5.26733e-06
48 *92:53 *93:87 0.000159183
49 *92:53 *110:12 6.17437e-06
50 *92:53 *110:27 2.64616e-05
51 *92:53 *142:10 5.67058e-05
52 *92:53 *162:10 0.000152625
53 *92:53 *164:8 0
54 *92:61 *110:8 6.48142e-05
55 *92:61 *110:27 7.05759e-05
56 *92:61 *155:113 0
57 *92:61 *201:23 5.68312e-05
58 *92:65 *110:27 5.18085e-05
59 *92:65 *201:23 0.000209385
60 *92:80 *93:12 7.39034e-05
61 *92:80 *93:20 0.000719585
62 *92:80 *96:87 0
63 *92:80 *150:35 0.000120405
64 *92:80 *152:102 0.000578068
65 *92:80 *154:29 0
66 *92:80 *192:12 0
67 *92:106 *508:A2 2.64616e-05
68 *92:106 *116:18 0.000119841
69 *92:106 *154:47 0.000114156
70 *92:106 *208:10 5.3304e-05
71 *92:126 *473:C 0.000310641
72 *92:126 *480:A2 5.50049e-05
73 *92:126 *147:176 0.000145621
74 *92:126 *150:21 0.000146119
75 *92:126 *150:35 0.000114205
76 *92:138 *480:A2 2.02872e-05
77 *92:138 *96:48 6.01687e-05
78 *92:138 *147:176 5.61255e-06
79 *92:138 *166:16 0.000246774
80 *475:B1 *92:126 0.000143655
81 *509:A2 *92:86 0.000100829
82 *594:CLK *92:106 0
83 *595:CLK *92:86 1.02535e-05
84 *595:CLK *92:106 0.000112337
85 *597:CLK *92:53 9.84794e-05
86 *607:A *92:80 8.06804e-06
87 *4:15 *92:65 9.7017e-05
88 *4:15 *92:80 0.000233044
89 *54:8 *642:A 0
90 *54:8 *92:12 0
91 *61:10 *92:80 0.00019746
92 *62:10 *92:12 0.000110922
93 *73:33 *92:138 2.2119e-05
94 *77:12 *92:126 2.89076e-05
95 *80:55 *92:106 0.000218612
96 *82:59 *524:A1 5.50106e-05
97 *85:33 *92:106 9.15678e-05
98 *85:35 *92:106 5.3304e-05
99 *88:80 *92:53 0.000481943
100 *91:6 *92:126 2.02872e-05
101 *91:20 *92:80 0
*RES
1 *596:Q *92:8 38.3211 
2 *92:8 *92:12 4.46393 
3 *92:12 *92:20 25.7921 
4 *92:20 *524:A1 28.2821 
5 *92:20 *523:A3 23 
6 *92:12 *642:A 40.2579 
7 *92:8 *92:53 35.4968 
8 *92:53 *92:61 17.6721 
9 *92:61 *92:65 17.9621 
10 *92:65 *493:A3 24.9471 
11 *92:65 *92:80 36.4393 
12 *92:80 *92:82 15 
13 *92:82 *92:86 6.83571 
14 *92:86 *92:106 38.7414 
15 *92:106 *508:A3 23 
16 *92:86 *509:A1 23 
17 *92:82 *92:126 19.8857 
18 *92:126 *92:138 35.9243 
19 *92:138 *479:A3 23 
20 *92:126 *480:A1 23 
21 *92:61 *494:A1 43.5514 
*END

*D_NET *93 0.0203998
*CONN
*I *525:A3 I *D sky130_fd_sc_hd__a31o_1
*I *526:A1 I *D sky130_fd_sc_hd__a21o_1
*I *482:A1 I *D sky130_fd_sc_hd__a21o_1
*I *481:A3 I *D sky130_fd_sc_hd__a31o_1
*I *495:A3 I *D sky130_fd_sc_hd__a31o_1
*I *496:A1 I *D sky130_fd_sc_hd__a21o_1
*I *510:A3 I *D sky130_fd_sc_hd__a31o_1
*I *511:A1 I *D sky130_fd_sc_hd__a21o_1
*I *646:A I *D sky130_fd_sc_hd__dlygate4sd3_1
*I *597:Q O *D sky130_fd_sc_hd__dfrtp_4
*CAP
1 *525:A3 0
2 *526:A1 0
3 *482:A1 0
4 *481:A3 0
5 *495:A3 0
6 *496:A1 9.56877e-05
7 *510:A3 0
8 *511:A1 0
9 *646:A 0
10 *597:Q 7.56353e-05
11 *93:101 0.000636936
12 *93:93 0.00212293
13 *93:91 0.0016274
14 *93:87 0.000935384
15 *93:55 0.000310906
16 *93:41 0.000373364
17 *93:37 0.00108934
18 *93:33 0.00232534
19 *93:20 0.000599091
20 *93:12 0.00200372
21 *93:8 0.00107146
22 *496:A1 *628:A 0
23 *496:A1 *129:8 9.75779e-05
24 *496:A1 *174:8 0.000105087
25 *93:12 *110:27 6.68793e-05
26 *93:12 *152:102 1.37349e-05
27 *93:12 *155:100 0
28 *93:12 *155:113 0
29 *93:20 *155:57 0
30 *93:20 *155:100 0
31 *93:20 *192:8 5.67058e-05
32 *93:33 *593:D 1.23293e-05
33 *93:33 *628:A 6.91844e-05
34 *93:33 *155:63 4.54556e-05
35 *93:33 *174:8 4.10228e-05
36 *93:37 *469:A 0
37 *93:37 *491:A2 2.55642e-05
38 *93:37 *94:37 0
39 *93:37 *134:10 7.10099e-05
40 *93:37 *150:114 7.52562e-05
41 *93:37 *152:32 0.000372161
42 *93:37 *154:53 7.52665e-05
43 *93:41 *510:A1 2.4754e-05
44 *93:41 *510:A2 0.000200361
45 *93:41 *510:B1 0.000228001
46 *93:41 *668:A 1.22822e-05
47 *93:41 *147:69 0.000213069
48 *93:55 *99:14 7.57648e-05
49 *93:55 *135:8 0.000137788
50 *93:55 *147:90 0
51 *93:55 *150:114 0
52 *93:55 *175:10 5.30949e-05
53 *93:55 *207:8 9.35071e-05
54 *93:55 *209:10 2.95125e-05
55 *93:87 *525:A1 2.02517e-05
56 *93:91 *153:19 0.000193398
57 *93:93 *473:B 0
58 *93:93 *100:10 8.62876e-05
59 *93:93 *127:44 9.39056e-05
60 *93:93 *127:57 0.000124154
61 *93:93 *147:109 0
62 *93:93 *147:176 0
63 *93:93 *151:10 0.000161121
64 *93:93 *153:19 0.000166522
65 *93:93 *156:58 0
66 *93:93 *156:70 0
67 *93:93 *157:81 2.47097e-05
68 *93:101 *481:B1 0
69 *93:101 *640:A 0
70 *93:101 *147:125 5.67058e-05
71 *93:101 *148:20 0.0001771
72 *93:101 *156:70 0.000144029
73 *93:101 *186:8 0.000169888
74 *474:C *93:93 8.94394e-05
75 *593:CLK *93:33 0.000272046
76 *597:CLK *93:87 5.70419e-05
77 *616:A *93:93 0.000110657
78 *617:A *93:93 8.15327e-05
79 *4:15 *93:12 1.09885e-05
80 *9:12 *93:101 6.38845e-05
81 *59:8 *93:12 0
82 *59:8 *93:20 0
83 *64:8 *93:93 0
84 *67:10 *93:93 0.000166522
85 *71:10 *93:93 0.000113728
86 *73:8 *93:37 0.000114083
87 *74:12 *93:20 0.000308045
88 *74:33 *93:37 0.000122386
89 *74:52 *93:37 9.79241e-05
90 *74:67 *93:37 1.19692e-05
91 *75:12 *93:93 0
92 *76:12 *93:93 0.000101824
93 *77:12 *93:93 0
94 *77:16 *93:93 0
95 *80:74 *93:55 0
96 *83:36 *93:93 0.000125413
97 *83:49 *93:93 0.000250445
98 *84:27 *93:93 5.93381e-05
99 *85:89 *93:37 0.000191166
100 *88:80 *93:87 2.18409e-05
101 *91:20 *93:20 0
102 *91:64 *93:20 0
103 *91:82 *93:37 0
104 *91:103 *93:37 0.000190941
105 *92:53 *93:8 5.26733e-06
106 *92:53 *93:87 0.000159183
107 *92:80 *93:12 7.39034e-05
108 *92:80 *93:20 0.000719585
*RES
1 *597:Q *93:8 24.1186 
2 *93:8 *93:12 19.0186 
3 *93:12 *93:20 28.7543 
4 *93:20 *646:A 23 
5 *93:12 *93:33 31.385 
6 *93:33 *93:37 37.6821 
7 *93:37 *93:41 18.9564 
8 *93:41 *93:55 36.2764 
9 *93:55 *511:A1 23 
10 *93:41 *510:A3 23 
11 *93:33 *496:A1 25.5479 
12 *93:33 *495:A3 23 
13 *93:8 *93:87 12.7186 
14 *93:87 *93:91 17.61 
15 *93:91 *93:93 31.4857 
16 *93:93 *93:101 27.7807 
17 *93:101 *481:A3 23 
18 *93:93 *482:A1 38 
19 *93:91 *526:A1 38 
20 *93:87 *525:A3 23 
*END

*D_NET *94 0.0203233
*CONN
*I *527:A3 I *D sky130_fd_sc_hd__a31o_1
*I *528:A1 I *D sky130_fd_sc_hd__a21o_1
*I *484:A1 I *D sky130_fd_sc_hd__a21o_1
*I *483:A3 I *D sky130_fd_sc_hd__a31o_1
*I *641:A I *D sky130_fd_sc_hd__dlygate4sd3_1
*I *513:A1 I *D sky130_fd_sc_hd__a21o_1
*I *497:A3 I *D sky130_fd_sc_hd__a31o_1
*I *498:A1 I *D sky130_fd_sc_hd__a21o_1
*I *512:A3 I *D sky130_fd_sc_hd__a31o_1
*I *598:Q O *D sky130_fd_sc_hd__dfrtp_4
*CAP
1 *527:A3 0
2 *528:A1 0
3 *484:A1 0.00028612
4 *483:A3 0
5 *641:A 1.74641e-05
6 *513:A1 0
7 *497:A3 0
8 *498:A1 0
9 *512:A3 4.07073e-05
10 *598:Q 2.34823e-05
11 *94:130 0.000359574
12 *94:117 0.00116212
13 *94:100 0.00147478
14 *94:91 0.000421937
15 *94:79 0.00102491
16 *94:55 4.29891e-05
17 *94:49 0.000792345
18 *94:37 0.00141769
19 *94:20 0.00119704
20 *94:12 0.000809988
21 *94:10 0.00126462
22 *94:6 0.0011655
23 *484:A1 *484:B1 0.000141052
24 *484:A1 *146:12 0.000244507
25 *484:A1 *146:25 9.69397e-05
26 *484:A1 *148:75 0.000104525
27 *484:A1 *198:10 0.0002263
28 *512:A3 *118:16 6.38845e-05
29 *512:A3 *150:47 1.02029e-05
30 *512:A3 *154:53 4.22943e-05
31 *94:12 *187:10 1.05235e-05
32 *94:20 *513:B1 0.000100069
33 *94:20 *518:A 1.08287e-05
34 *94:20 *518:B 3.82137e-05
35 *94:20 *518:C 0.000100061
36 *94:20 *518:D 9.64943e-05
37 *94:20 *118:16 9.41704e-05
38 *94:20 *147:37 1.46286e-05
39 *94:20 *147:56 2.02872e-05
40 *94:20 *210:6 2.22419e-05
41 *94:20 *210:20 2.45032e-06
42 *94:37 *469:A 0
43 *94:37 *497:A1 5.90675e-06
44 *94:37 *508:A2 4.79458e-06
45 *94:37 *581:D 0.000166513
46 *94:37 *130:8 5.50106e-05
47 *94:37 *147:14 7.61623e-05
48 *94:37 *147:29 3.20135e-05
49 *94:37 *147:37 4.41722e-05
50 *94:37 *150:47 3.58626e-05
51 *94:37 *154:53 0.000220274
52 *94:37 *172:8 0.000161898
53 *94:37 *208:26 0.000111852
54 *94:49 *469:A 1.14452e-05
55 *94:49 *499:A3 4.82745e-05
56 *94:49 *503:B 9.91798e-05
57 *94:49 *503:D 0.000375265
58 *94:49 *112:14 0.000185217
59 *94:49 *152:52 0.000228051
60 *94:49 *152:54 0.000206288
61 *94:49 *182:8 9.24795e-06
62 *94:49 *205:35 5.30475e-05
63 *94:55 *204:12 0
64 *94:91 *147:109 0.000898281
65 *94:91 *147:125 1.22904e-05
66 *94:91 *156:58 0.00030233
67 *94:91 *156:70 0.000292867
68 *94:91 *178:10 2.93747e-05
69 *94:117 *490:B 0.00019747
70 *94:117 *529:A2 3.08539e-05
71 *94:117 *567:A 9.74235e-05
72 *94:117 *146:8 0.000217498
73 *94:117 *146:12 0.000538897
74 *94:117 *147:176 1.09783e-05
75 *94:117 *148:75 0.000103813
76 *94:117 *148:117 0.000113044
77 *94:117 *153:36 3.3746e-05
78 *94:117 *156:52 1.22803e-05
79 *94:117 *196:10 0.000150432
80 *94:130 *96:69 0
81 *94:130 *124:8 0
82 *94:130 *153:34 1.14452e-05
83 *94:130 *153:36 0.000487452
84 *94:130 *218:8 0
85 *513:A2 *94:12 5.56279e-05
86 *570:CLK *94:91 5.50106e-05
87 *590:CLK *94:117 0
88 *590:CLK *94:130 3.47781e-05
89 *591:CLK *94:130 5.46706e-05
90 *598:CLK *641:A 1.37232e-05
91 *598:CLK *94:10 0.000273778
92 *37:10 *94:91 0.000110913
93 *44:8 *94:49 0
94 *73:14 *94:37 0.000143543
95 *74:43 *94:55 8.9458e-05
96 *78:14 *484:A1 4.32372e-05
97 *79:6 *94:49 0.000477634
98 *82:8 *94:117 0
99 *86:10 *94:100 0.000178517
100 *87:49 *94:55 0
101 *88:35 *94:117 9.67842e-05
102 *88:35 *94:130 5.3304e-05
103 *91:82 *94:49 3.04021e-05
104 *93:37 *94:37 0
*RES
1 *598:Q *94:6 23.4971 
2 *94:6 *94:10 12.5529 
3 *94:10 *94:12 4.90929 
4 *94:12 *94:20 23.41 
5 *94:20 *512:A3 39.2014 
6 *94:20 *94:37 30.2457 
7 *94:37 *94:49 47.7314 
8 *94:49 *94:55 31.2014 
9 *94:55 *498:A1 23 
10 *94:37 *497:A3 23 
11 *94:12 *513:A1 23 
12 *94:10 *641:A 23.4971 
13 *94:6 *94:79 2.52714 
14 *94:79 *94:91 43.8579 
15 *94:91 *483:A3 23 
16 *94:79 *94:100 19.9093 
17 *94:100 *484:A1 46.8036 
18 *94:100 *94:117 34.2021 
19 *94:117 *528:A1 23 
20 *94:117 *94:130 37.105 
21 *94:130 *527:A3 23 
*END

*D_NET *95 0.0209086
*CONN
*I *643:A I *D sky130_fd_sc_hd__dlygate4sd3_1
*I *530:A1 I *D sky130_fd_sc_hd__a21o_1
*I *529:A3 I *D sky130_fd_sc_hd__a31o_1
*I *486:A1 I *D sky130_fd_sc_hd__a21o_1
*I *485:A3 I *D sky130_fd_sc_hd__a31o_1
*I *515:A1 I *D sky130_fd_sc_hd__a21o_1
*I *514:A3 I *D sky130_fd_sc_hd__a31o_1
*I *500:A1 I *D sky130_fd_sc_hd__a21o_1
*I *499:A3 I *D sky130_fd_sc_hd__a31o_1
*I *599:Q O *D sky130_fd_sc_hd__dfrtp_4
*CAP
1 *643:A 3.37343e-05
2 *530:A1 7.67915e-05
3 *529:A3 0
4 *486:A1 0.000110363
5 *485:A3 0
6 *515:A1 0
7 *514:A3 0
8 *500:A1 0.000581708
9 *499:A3 9.70306e-05
10 *599:Q 0.000137788
11 *95:132 0.000366519
12 *95:118 0.000952211
13 *95:105 0.000968491
14 *95:94 0.00141088
15 *95:70 0.000121669
16 *95:62 0.000239834
17 *95:26 0.00289755
18 *95:18 0.00389578
19 *95:12 0.00265339
20 *95:10 0.000204449
21 *486:A1 *486:A2 5.67058e-05
22 *486:A1 *138:31 8.84817e-06
23 *499:A3 *112:14 5.31385e-05
24 *499:A3 *112:29 1.83327e-05
25 *500:A1 *152:54 0
26 *500:A1 *173:8 6.07611e-06
27 *530:A1 *127:12 0.000213869
28 *95:10 *563:A 4.66036e-05
29 *95:10 *564:A 0.000150977
30 *95:10 *155:8 5.50106e-05
31 *95:10 *155:21 3.70187e-05
32 *95:12 *564:A 5.33597e-05
33 *95:18 *564:A 0.000180019
34 *95:62 *119:14 4.51431e-05
35 *95:62 *154:90 0
36 *95:70 *150:57 8.41115e-05
37 *95:70 *150:65 6.07611e-06
38 *95:94 *485:A1 6.09174e-05
39 *95:94 *489:A 9.67842e-05
40 *95:94 *489:B 7.80839e-05
41 *95:94 *571:D 0.000342985
42 *95:94 *189:10 4.50607e-05
43 *95:94 *199:12 5.08704e-05
44 *95:94 *199:24 1.5769e-05
45 *95:94 *200:18 9.84794e-05
46 *95:105 *485:A1 4.5051e-05
47 *95:105 *485:B1 0.000141954
48 *95:105 *488:A2 0
49 *95:105 *138:14 1.01436e-05
50 *95:105 *138:23 0.000129504
51 *95:105 *169:10 5.70419e-05
52 *95:105 *199:12 0.000176355
53 *95:118 *477:B1 0.000184523
54 *95:118 *478:A2 0
55 *95:118 *103:10 0.000171906
56 *95:118 *104:8 0.000138136
57 *95:118 *138:23 0.000145969
58 *95:118 *138:50 0.000484126
59 *95:118 *156:34 0.000181799
60 *95:118 *169:10 0
61 *95:132 *529:B1 9.67842e-05
62 *95:132 *531:A1 9.67842e-05
63 *95:132 *678:A 6.38926e-05
64 *95:132 *96:48 0.000126484
65 *95:132 *126:12 4.6318e-06
66 *95:132 *127:12 0.000150642
67 *95:132 *156:44 0.000313249
68 *95:132 *217:10 0.000514244
69 seg0[1] *95:118 5.77147e-05
70 *515:A2 *95:62 9.41704e-05
71 *515:A2 *95:70 5.3304e-05
72 *584:RESET_B *95:70 0.000166513
73 *590:CLK *95:132 7.55491e-05
74 *65:10 *643:A 5.3304e-05
75 *65:10 *95:94 3.34247e-05
76 *72:53 *500:A1 0
77 *73:33 *95:132 0.00025214
78 *74:33 *499:A3 5.3304e-05
79 *78:14 *95:94 5.3304e-05
80 *82:33 *530:A1 0.000135359
81 *82:33 *95:132 6.17437e-06
82 *86:59 *95:94 1.38758e-05
83 *86:65 *95:94 2.65879e-05
84 *94:49 *499:A3 4.82745e-05
*RES
1 *599:Q *95:10 41.2314 
2 *95:10 *95:12 0.849286 
3 *95:12 *95:18 13.3235 
4 *95:18 *95:26 20.8104 
5 *95:26 *499:A3 47.3936 
6 *95:26 *500:A1 47.5449 
7 *95:18 *95:62 24.7711 
8 *95:62 *95:70 32.8793 
9 *95:70 *514:A3 23 
10 *95:62 *515:A1 23 
11 *95:12 *95:94 32.6486 
12 *95:94 *485:A3 23 
13 *95:94 *95:105 23.7207 
14 *95:105 *486:A1 39.5743 
15 *95:105 *95:118 29.935 
16 *95:118 *95:132 43.3814 
17 *95:132 *529:A3 23 
18 *95:118 *530:A1 26.0243 
19 *95:10 *643:A 38.6214 
*END

*D_NET *96 0.0211631
*CONN
*I *487:A3 I *D sky130_fd_sc_hd__a31o_1
*I *488:A1 I *D sky130_fd_sc_hd__a21o_1
*I *502:A1 I *D sky130_fd_sc_hd__a21o_1
*I *501:A3 I *D sky130_fd_sc_hd__a31o_1
*I *645:A I *D sky130_fd_sc_hd__dlygate4sd3_1
*I *532:A1 I *D sky130_fd_sc_hd__a21o_1
*I *531:A3 I *D sky130_fd_sc_hd__a31o_1
*I *516:A3 I *D sky130_fd_sc_hd__a31o_1
*I *517:A1 I *D sky130_fd_sc_hd__a21o_1
*I *600:Q O *D sky130_fd_sc_hd__dfrtp_4
*CAP
1 *487:A3 0
2 *488:A1 0
3 *502:A1 0
4 *501:A3 0.000169543
5 *645:A 0
6 *532:A1 0
7 *531:A3 0
8 *516:A3 0.000300743
9 *517:A1 0.000149883
10 *600:Q 0
11 *96:129 0.000590488
12 *96:119 0.000590488
13 *96:117 0.00109018
14 *96:102 7.59672e-05
15 *96:87 0.00112108
16 *96:69 0.000431806
17 *96:54 0.000559643
18 *96:48 0.00185589
19 *96:36 0.00198398
20 *96:32 0.00163379
21 *96:17 0.000803038
22 *96:8 0.000859988
23 *96:4 0.00180028
24 *501:A3 *501:B1 2.02872e-05
25 *501:A3 *152:24 1.10658e-05
26 *501:A3 *152:26 2.07484e-05
27 *516:A3 *516:B1 0
28 *516:A3 *585:D 0
29 *516:A3 *637:A 0
30 *516:A3 *154:90 0
31 *96:32 *637:A 0
32 *96:32 *190:10 0.000138708
33 *96:48 *562:A 0.00014196
34 *96:48 *618:A 5.50106e-05
35 *96:48 *144:10 0
36 *96:48 *147:182 7.57281e-06
37 *96:48 *148:91 0.000107218
38 *96:48 *156:34 0
39 *96:48 *156:52 6.51746e-05
40 *96:48 *156:58 0.000182832
41 *96:48 *156:115 0
42 *96:48 *158:8 0.000184825
43 *96:48 *195:6 6.16164e-05
44 *96:48 *195:14 0.000182832
45 *96:48 *217:10 0.000114083
46 *96:69 *529:B1 5.12254e-05
47 *96:69 *532:B1 2.81041e-05
48 *96:69 *124:8 6.07611e-06
49 *96:69 *144:10 0.00010018
50 *96:69 *153:68 1.86869e-05
51 *96:69 *156:115 0.000152639
52 *96:69 *218:8 0.000138727
53 *96:87 *501:B1 3.3618e-05
54 *96:87 *148:136 7.56033e-05
55 *96:87 *150:35 0
56 *96:87 *171:8 5.31444e-05
57 *96:102 *148:136 0.000110913
58 *96:117 *640:A 9.84794e-05
59 *96:117 *108:14 1.94418e-05
60 *96:117 *148:33 0.000219383
61 *96:117 *148:62 0.000293785
62 *96:117 *189:10 0
63 *96:117 *199:24 5.50049e-05
64 *96:129 *682:A 3.62905e-05
65 *96:129 *108:27 0
66 *96:129 *184:10 6.07611e-06
67 *487:A2 *96:117 0.000349386
68 *487:A2 *96:129 3.22879e-05
69 *490:C *96:48 1.95448e-05
70 *515:A2 *517:A1 9.80024e-05
71 *568:CLK *96:48 0.000148744
72 *585:CLK *516:A3 1.85903e-05
73 *585:CLK *96:32 2.8658e-06
74 *589:RESET_B *96:69 9.67842e-05
75 *590:CLK *96:69 0
76 *591:CLK *96:69 0
77 *605:A *96:36 0.000615876
78 *605:A *96:48 3.88669e-05
79 *613:A *517:A1 3.70071e-06
80 *613:A *96:8 0.000157037
81 *613:A *96:117 0.000153455
82 *4:15 *96:87 8.02357e-05
83 *11:8 *96:129 0.000230604
84 *35:8 *96:48 0
85 *55:8 *96:69 1.58805e-05
86 *56:10 *96:48 0
87 *61:10 *96:87 0
88 *72:10 *517:A1 5.14746e-06
89 *72:30 *96:32 0.000569051
90 *72:30 *96:87 0.000718577
91 *72:53 *501:A3 0.000100061
92 *72:53 *96:102 0.000112294
93 *73:33 *96:48 0.000174279
94 *79:14 *96:87 2.07921e-05
95 *80:20 *96:32 4.35111e-05
96 *84:27 *96:48 0.000305345
97 *86:26 *96:117 2.93747e-05
98 *86:39 *96:117 2.80512e-05
99 *92:80 *96:87 0
100 *92:138 *96:48 6.01687e-05
101 *94:130 *96:69 0
102 *95:132 *96:48 0.000126484
*RES
1 *600:Q *96:4 23 
2 *96:4 *96:8 10.1707 
3 *96:8 *517:A1 25.0507 
4 *96:8 *96:17 15 
5 *96:17 *516:A3 42.7229 
6 *96:17 *96:32 12.8843 
7 *96:32 *96:36 21.815 
8 *96:36 *96:48 49.6239 
9 *96:48 *96:54 16.8954 
10 *96:54 *531:A3 23 
11 *96:54 *96:69 39.5079 
12 *96:69 *532:A1 23 
13 *96:36 *645:A 23 
14 *96:32 *96:87 33.415 
15 *96:87 *501:A3 26.0243 
16 *96:87 *96:102 31.5536 
17 *96:102 *502:A1 23 
18 *96:4 *96:117 35.155 
19 *96:117 *96:119 15 
20 *96:119 *96:129 41.9314 
21 *96:129 *488:A1 23 
22 *96:119 *487:A3 23 
*END

*D_NET *97 0.000589722
*CONN
*I *592:D I *D sky130_fd_sc_hd__dfrtp_1
*I *490:X O *D sky130_fd_sc_hd__and3_1
*CAP
1 *592:D 0
2 *490:X 0.000160418
3 *97:10 0.000160418
4 *97:10 *156:52 7.88828e-05
5 *58:8 *97:10 0.00014411
6 *86:116 *97:10 4.58924e-05
*RES
1 *490:X *97:10 41.48 
2 *97:10 *592:D 38 
*END

*D_NET *98 0.000848658
*CONN
*I *593:D I *D sky130_fd_sc_hd__dfrtp_1
*I *504:X O *D sky130_fd_sc_hd__and3_1
*CAP
1 *593:D 2.2187e-05
2 *504:X 0.000268754
3 *98:10 0.000290941
4 *593:D *155:63 5.54294e-05
5 *98:10 *148:136 0.000141689
6 *98:10 *152:24 5.73288e-05
7 *93:33 *593:D 1.23293e-05
*RES
1 *504:X *98:10 42.9921 
2 *98:10 *593:D 38.6214 
*END

*D_NET *99 0.00264394
*CONN
*I *594:D I *D sky130_fd_sc_hd__dfrtp_1
*I *519:X O *D sky130_fd_sc_hd__and3_1
*CAP
1 *594:D 1.99064e-05
2 *519:X 0.00107167
3 *99:14 0.00109158
4 *99:14 *667:A 6.17437e-06
5 *99:14 *150:35 0.000293269
6 *99:14 *175:10 2.05503e-05
7 *99:14 *207:8 5.61255e-06
8 *99:14 *209:10 5.3304e-05
9 *81:12 *99:14 0
10 *85:14 *594:D 6.10551e-06
11 *93:55 *99:14 7.57648e-05
*RES
1 *519:X *99:14 49.5357 
2 *99:14 *594:D 46.3211 
*END

*D_NET *100 0.000902688
*CONN
*I *475:A1 I *D sky130_fd_sc_hd__a21o_1
*I *592:Q O *D sky130_fd_sc_hd__dfrtp_1
*CAP
1 *475:A1 0
2 *592:Q 0.00038536
3 *100:10 0.00038536
4 *100:10 *147:107 4.56802e-05
5 *100:10 *147:176 0
6 *93:93 *100:10 8.62876e-05
*RES
1 *592:Q *100:10 43.6343 
2 *100:10 *475:A1 38 
*END

*D_NET *101 0.000875847
*CONN
*I *648:A I *D sky130_fd_sc_hd__dlygate4sd3_1
*I *476:A1_N I *D sky130_fd_sc_hd__o2bb2a_1
*I *593:Q O *D sky130_fd_sc_hd__dfrtp_1
*CAP
1 *648:A 0
2 *476:A1_N 0.000137614
3 *593:Q 5.39979e-05
4 *101:25 6.31497e-05
5 *101:6 0.000254761
6 *476:A1_N *566:A 0.000119556
7 *476:A1_N *157:59 4.23492e-05
8 *101:6 *155:63 8.91468e-07
9 *101:25 *155:100 0.000141879
10 *101:25 *157:59 4.58924e-05
11 *68:10 *476:A1_N 1.57571e-05
*RES
1 *593:Q *101:6 23.6214 
2 *101:6 *476:A1_N 26.713 
3 *101:6 *101:25 31.9057 
4 *101:25 *648:A 23 
*END

*D_NET *102 0.00192837
*CONN
*I *473:C I *D sky130_fd_sc_hd__and4b_1
*I *594:Q O *D sky130_fd_sc_hd__dfrtp_1
*CAP
1 *473:C 7.68728e-05
2 *594:Q 0.000371
3 *102:10 0.000447873
4 *473:C *150:35 3.53115e-05
5 *102:10 *147:107 3.58084e-06
6 *102:10 *154:21 0.000116554
7 *102:10 *155:46 0.000108681
8 *594:RESET_B *102:10 0.00014196
9 *603:CLK *102:10 0.000110922
10 *83:16 *473:C 2.4754e-05
11 *91:6 *473:C 1.24376e-05
12 *91:149 *473:C 0.00016778
13 *92:126 *473:C 0.000310641
*RES
1 *594:Q *102:10 43.9864 
2 *102:10 *473:C 41.48 
*END

*D_NET *103 0.0011672
*CONN
*I *477:B1 I *D sky130_fd_sc_hd__a31o_1
*I *635:A I *D sky130_fd_sc_hd__dlygate4sd3_1
*I *568:Q O *D sky130_fd_sc_hd__dfrtp_1
*CAP
1 *477:B1 5.94171e-05
2 *635:A 5.145e-05
3 *568:Q 9.92332e-05
4 *103:10 0.0002101
5 *477:B1 *138:50 0.000193746
6 *103:10 *138:50 0.000167443
7 *103:10 *195:6 2.93845e-05
8 *95:118 *477:B1 0.000184523
9 *95:118 *103:10 0.000171906
*RES
1 *568:Q *103:10 40.8793 
2 *103:10 *635:A 38.6214 
3 *103:10 *477:B1 40.61 
*END

*D_NET *104 0.00218232
*CONN
*I *651:A I *D sky130_fd_sc_hd__dlygate4sd3_1
*I *479:B1 I *D sky130_fd_sc_hd__a31o_1
*I *569:Q O *D sky130_fd_sc_hd__dfrtp_1
*CAP
1 *651:A 0
2 *479:B1 0
3 *569:Q 6.50711e-05
4 *104:26 0.000545442
5 *104:12 0.000570847
6 *104:8 9.04766e-05
7 *104:8 *156:34 6.50971e-05
8 *104:12 *148:106 5.50049e-05
9 *104:26 *477:A2 0.00027853
10 *104:26 *147:176 0
11 *104:26 *148:91 0.000114561
12 *104:26 *148:106 9.5877e-05
13 *104:26 *156:34 8.25833e-05
14 *104:26 *166:16 4.20667e-05
15 *35:8 *104:26 3.86268e-05
16 *95:118 *104:8 0.000138136
*RES
1 *569:Q *104:8 39.9057 
2 *104:8 *104:12 15.6214 
3 *104:12 *104:26 39.1505 
4 *104:26 *479:B1 23 
5 *104:12 *651:A 23 
*END

*D_NET *105 0.00162034
*CONN
*I *640:A I *D sky130_fd_sc_hd__dlygate4sd3_1
*I *481:B1 I *D sky130_fd_sc_hd__a31o_1
*I *570:Q O *D sky130_fd_sc_hd__dfrtp_1
*CAP
1 *640:A 0.000186354
2 *481:B1 0.000173981
3 *570:Q 0.00029077
4 *105:8 0.000651105
5 *640:A *564:A 0
6 *105:8 *564:A 0.00010018
7 *613:A *640:A 5.41288e-05
8 *36:8 *481:B1 4.58924e-05
9 *36:8 *640:A 1.94522e-05
10 *93:101 *481:B1 0
11 *93:101 *640:A 0
12 *96:117 *640:A 9.84794e-05
*RES
1 *570:Q *105:8 43.3857 
2 *105:8 *481:B1 40.61 
3 *105:8 *640:A 42.06 
*END

*D_NET *106 0.00229391
*CONN
*I *634:A I *D sky130_fd_sc_hd__dlygate4sd3_1
*I *483:B1 I *D sky130_fd_sc_hd__a31o_1
*I *571:Q O *D sky130_fd_sc_hd__dfrtp_1
*CAP
1 *634:A 7.90345e-05
2 *483:B1 0.000307073
3 *571:Q 0.000119552
4 *106:8 0.00050566
5 *483:B1 *148:33 0
6 *483:B1 *148:49 0.000187129
7 *483:B1 *189:10 0.000189173
8 *483:B1 *198:10 7.75329e-06
9 *483:B1 *199:24 0.000111781
10 *483:B1 *200:18 0
11 *634:A *197:10 0
12 *634:A *198:10 2.01531e-05
13 *106:8 *489:B 1.21972e-05
14 *106:8 *571:D 3.7122e-06
15 *106:8 *199:24 9.67842e-05
16 *570:CLK *483:B1 0.000143655
17 *573:CLK *483:B1 4.17736e-05
18 *78:14 *483:B1 0.000102893
19 *78:14 *634:A 0.000138718
20 *86:16 *634:A 1.01436e-05
21 *86:39 *483:B1 0.000216721
*RES
1 *571:Q *106:8 39.5743 
2 *106:8 *483:B1 46.8864 
3 *106:8 *634:A 39.9057 
*END

*D_NET *107 0.000714194
*CONN
*I *623:A I *D sky130_fd_sc_hd__dlygate4sd3_1
*I *485:B1 I *D sky130_fd_sc_hd__a31o_1
*I *572:Q O *D sky130_fd_sc_hd__dfrtp_1
*CAP
1 *623:A 0
2 *485:B1 6.1801e-05
3 *572:Q 0.000176756
4 *107:12 6.1801e-05
5 *107:10 0.000176756
6 *107:10 *488:A2 6.79006e-05
7 *487:A2 *107:10 0
8 *572:RESET_B *107:10 2.72257e-05
9 *73:33 *107:10 0
10 *95:105 *485:B1 0.000141954
*RES
1 *572:Q *107:10 41.0036 
2 *107:10 *107:12 15 
3 *107:12 *485:B1 24.5743 
4 *107:12 *623:A 23 
*END

*D_NET *108 0.00273354
*CONN
*I *638:A I *D sky130_fd_sc_hd__dlygate4sd3_1
*I *487:B1 I *D sky130_fd_sc_hd__a31o_1
*I *573:Q O *D sky130_fd_sc_hd__dfrtp_1
*CAP
1 *638:A 0
2 *487:B1 0
3 *573:Q 0.00011254
4 *108:27 0.000279402
5 *108:14 0.000488438
6 *108:6 0.000880381
7 *108:6 *200:10 0.000185434
8 *108:14 *148:62 3.83778e-05
9 *108:14 *189:10 6.93449e-05
10 *108:14 *200:10 0.000311005
11 *108:27 *488:A2 0.000166522
12 *108:27 *537:A 5.67058e-05
13 *108:27 *138:14 0
14 *108:27 *184:10 0
15 *487:A2 *108:27 0
16 *572:RESET_B *108:27 7.13587e-05
17 *39:8 *108:27 5.45887e-05
18 *96:117 *108:14 1.94418e-05
19 *96:129 *108:27 0
*RES
1 *573:Q *108:6 25.0507 
2 *108:6 *108:14 37.7679 
3 *108:14 *487:B1 23 
4 *108:6 *108:27 36.0693 
5 *108:27 *638:A 23 
*END

*D_NET *109 0.00133796
*CONN
*I *631:A I *D sky130_fd_sc_hd__dlygate4sd3_1
*I *491:B1 I *D sky130_fd_sc_hd__a31o_1
*I *574:Q O *D sky130_fd_sc_hd__dfrtp_1
*CAP
1 *631:A 0.000124324
2 *491:B1 0.000133572
3 *574:Q 6.17668e-05
4 *109:10 0.000257897
5 *109:8 6.17668e-05
6 *109:8 *177:8 8.85189e-05
7 *491:A3 *491:B1 5.41288e-05
8 *494:A2 *491:B1 9.5877e-05
9 *494:A2 *631:A 0.00031007
10 *74:67 *491:B1 1.03955e-05
11 *87:37 *109:8 0.000139647
*RES
1 *574:Q *109:8 39.9057 
2 *109:8 *109:10 15 
3 *109:10 *491:B1 25.5271 
4 *109:10 *631:A 26.48 
*END

*D_NET *110 0.00114768
*CONN
*I *493:B1 I *D sky130_fd_sc_hd__a31o_1
*I *652:A I *D sky130_fd_sc_hd__dlygate4sd3_1
*I *575:Q O *D sky130_fd_sc_hd__dfrtp_1
*CAP
1 *493:B1 0
2 *652:A 0
3 *575:Q 6.11206e-05
4 *110:27 0.000188182
5 *110:12 0.000231017
6 *110:8 0.000103955
7 *110:8 *155:113 0
8 *110:8 *201:23 0.00014411
9 *110:27 *152:102 5.50106e-05
10 *110:27 *155:113 0
11 *494:A1 *110:12 3.7122e-06
12 *607:A *110:27 5.3304e-05
13 *4:15 *110:27 2.05503e-05
14 *92:53 *110:12 6.17437e-06
15 *92:53 *110:27 2.64616e-05
16 *92:61 *110:8 6.48142e-05
17 *92:61 *110:27 7.05759e-05
18 *92:65 *110:27 5.18085e-05
19 *93:12 *110:27 6.68793e-05
*RES
1 *575:Q *110:8 39.9057 
2 *110:8 *110:12 15.6214 
3 *110:12 *652:A 23 
4 *110:12 *110:27 34.205 
5 *110:27 *493:B1 23 
*END

*D_NET *111 0.00144447
*CONN
*I *495:B1 I *D sky130_fd_sc_hd__a31o_1
*I *628:A I *D sky130_fd_sc_hd__dlygate4sd3_1
*I *576:Q O *D sky130_fd_sc_hd__dfrtp_1
*CAP
1 *495:B1 0
2 *628:A 0.000121333
3 *576:Q 0.000157793
4 *111:12 0.000121333
5 *111:10 0.000157793
6 *628:A *155:71 0.000143835
7 *628:A *174:8 0.000141052
8 *111:10 *495:A1 0.000138708
9 *111:10 *132:26 9.41704e-05
10 *496:A1 *628:A 0
11 *593:CLK *628:A 0.000232409
12 *91:110 *111:10 6.68587e-05
13 *93:33 *628:A 6.91844e-05
*RES
1 *576:Q *111:10 41.0036 
2 *111:10 *111:12 15 
3 *111:12 *628:A 27.93 
4 *111:12 *495:B1 23 
*END

*D_NET *112 0.00324047
*CONN
*I *497:B1 I *D sky130_fd_sc_hd__a31o_1
*I *636:A I *D sky130_fd_sc_hd__dlygate4sd3_1
*I *577:Q O *D sky130_fd_sc_hd__dfrtp_1
*CAP
1 *497:B1 0
2 *636:A 0
3 *577:Q 0.000218408
4 *112:29 0.000489613
5 *112:14 0.000277362
6 *112:6 0.000985383
7 *112:14 *503:D 5.3304e-05
8 *112:29 *497:A1 0.000103405
9 *499:A1 *112:29 0.000123879
10 *499:A3 *112:14 5.31385e-05
11 *499:A3 *112:29 1.83327e-05
12 *72:30 *112:29 0
13 *73:14 *112:29 0.000106318
14 *74:33 *112:6 7.17787e-05
15 *74:33 *112:29 2.36918e-05
16 *87:12 *112:14 1.01436e-05
17 *91:72 *112:14 2.64616e-05
18 *91:82 *112:14 0.000494031
19 *94:49 *112:14 0.000185217
*RES
1 *577:Q *112:6 26.0036 
2 *112:6 *112:14 37.4571 
3 *112:14 *636:A 23 
4 *112:6 *112:29 38.3893 
5 *112:29 *497:B1 23 
*END

*D_NET *113 0.00125954
*CONN
*I *499:B1 I *D sky130_fd_sc_hd__a31o_1
*I *627:A I *D sky130_fd_sc_hd__dlygate4sd3_1
*I *578:Q O *D sky130_fd_sc_hd__dfrtp_1
*CAP
1 *499:B1 0
2 *627:A 0
3 *578:Q 5.58329e-05
4 *113:19 0.000191758
5 *113:6 0.00024759
6 *113:6 *152:32 0.000180218
7 *113:19 *152:26 8.53029e-05
8 *113:19 *152:32 5.3304e-05
9 *113:19 *152:52 9.58769e-05
10 *113:19 *152:54 5.58975e-06
11 *113:19 *205:8 3.76761e-05
12 *578:RESET_B *113:6 0.000180218
13 *578:RESET_B *113:19 0.000126169
*RES
1 *578:Q *113:6 25.0507 
2 *113:6 *627:A 23 
3 *113:6 *113:19 34.5364 
4 *113:19 *499:B1 23 
*END

*D_NET *114 0.00177415
*CONN
*I *625:A I *D sky130_fd_sc_hd__dlygate4sd3_1
*I *501:B1 I *D sky130_fd_sc_hd__a31o_1
*I *579:Q O *D sky130_fd_sc_hd__dfrtp_1
*CAP
1 *625:A 0.000135814
2 *501:B1 0.000130792
3 *579:Q 0.000109504
4 *114:12 0.000266606
5 *114:10 0.000109504
6 *501:B1 *152:24 0.000309615
7 *625:A *152:22 0.000168687
8 *625:A *152:24 9.5877e-05
9 *114:10 *201:23 0.000138727
10 *501:A3 *501:B1 2.02872e-05
11 *579:RESET_B *114:10 5.3304e-05
12 *4:15 *114:10 0.000136486
13 *72:53 *501:B1 5.56279e-05
14 *79:14 *501:B1 9.70259e-06
15 *96:87 *501:B1 3.3618e-05
*RES
1 *579:Q *114:10 40.5271 
2 *114:10 *114:12 15 
3 *114:12 *501:B1 26.48 
4 *114:12 *625:A 26.0036 
*END

*D_NET *115 0.00232317
*CONN
*I *626:A I *D sky130_fd_sc_hd__dlygate4sd3_1
*I *505:B1 I *D sky130_fd_sc_hd__a31o_1
*I *580:Q O *D sky130_fd_sc_hd__dfrtp_1
*CAP
1 *626:A 0
2 *505:B1 0
3 *580:Q 0
4 *115:27 0.000427853
5 *115:12 0.000221118
6 *115:4 0.000648972
7 *115:12 *147:90 6.93553e-05
8 *115:12 *150:114 0.000138727
9 *115:27 *116:18 1.03972e-05
10 *115:27 *147:14 8.62783e-05
11 *115:27 *154:47 2.46906e-05
12 *115:27 *208:10 0.000155122
13 *115:27 *208:16 0.000222948
14 *85:35 *115:27 0.000202707
15 *85:37 *115:12 9.4713e-05
16 *85:37 *115:27 2.02872e-05
*RES
1 *580:Q *115:4 23 
2 *115:4 *115:12 33.9564 
3 *115:12 *505:B1 23 
4 *115:4 *115:27 37.2086 
5 *115:27 *626:A 23 
*END

*D_NET *116 0.0024413
*CONN
*I *624:A I *D sky130_fd_sc_hd__dlygate4sd3_1
*I *508:B1 I *D sky130_fd_sc_hd__a31o_1
*I *581:Q O *D sky130_fd_sc_hd__dfrtp_1
*CAP
1 *624:A 0.00030349
2 *508:B1 0
3 *581:Q 0
4 *116:18 0.000187972
5 *116:12 0.000577987
6 *116:4 0.000693504
7 *624:A *154:35 8.72296e-05
8 *624:A *170:10 5.56356e-05
9 *116:12 *154:47 2.04934e-05
10 *116:18 *147:14 3.52272e-05
11 *116:18 *150:35 2.26406e-05
12 *116:18 *170:10 0
13 *116:18 *208:10 8.29264e-05
14 *595:CLK *116:12 0.000144063
15 *80:12 *116:12 1.85903e-05
16 *85:33 *116:18 5.44889e-06
17 *85:35 *116:12 7.58527e-05
18 *92:106 *116:18 0.000119841
19 *115:27 *116:18 1.03972e-05
*RES
1 *581:Q *116:4 23 
2 *116:4 *116:12 35.6343 
3 *116:12 *116:18 33.6664 
4 *116:18 *508:B1 23 
5 *116:4 *624:A 27.3293 
*END

*D_NET *117 0.00158948
*CONN
*I *629:A I *D sky130_fd_sc_hd__dlygate4sd3_1
*I *510:B1 I *D sky130_fd_sc_hd__a31o_1
*I *582:Q O *D sky130_fd_sc_hd__dfrtp_1
*CAP
1 *629:A 2.5007e-05
2 *510:B1 6.5308e-05
3 *582:Q 0.000195459
4 *117:10 9.0315e-05
5 *117:8 0.000195459
6 *510:B1 *510:A1 9.84794e-05
7 *510:B1 *147:69 4.6595e-05
8 *510:B1 *150:97 0.000227208
9 *629:A *147:69 2.64616e-05
10 *629:A *150:97 4.08664e-05
11 *117:8 *136:10 0
12 *117:8 *147:56 8.94394e-05
13 *117:8 *154:53 0.000260885
14 *93:41 *510:B1 0.000228001
*RES
1 *582:Q *117:8 41.6664 
2 *117:8 *117:10 15 
3 *117:10 *510:B1 26.48 
4 *117:10 *629:A 23.6214 
*END

*D_NET *118 0.00158825
*CONN
*I *632:A I *D sky130_fd_sc_hd__dlygate4sd3_1
*I *512:B1 I *D sky130_fd_sc_hd__a31o_1
*I *583:Q O *D sky130_fd_sc_hd__dfrtp_1
*CAP
1 *632:A 6.63697e-05
2 *512:B1 0
3 *583:Q 6.85071e-05
4 *118:16 0.000221683
5 *118:6 0.00035656
6 *632:A *546:A 5.56356e-05
7 *632:A *210:20 0.000140935
8 *118:6 *210:20 0.000140259
9 *118:16 *518:B 4.00259e-06
10 *118:16 *147:37 4.05745e-05
11 *118:16 *147:56 1.83444e-05
12 *118:16 *150:47 2.46345e-05
13 *118:16 *150:53 0.00021039
14 *118:16 *154:53 5.16012e-05
15 *512:A3 *118:16 6.38845e-05
16 *48:12 *632:A 3.06991e-05
17 *94:20 *118:16 9.41704e-05
*RES
1 *583:Q *118:6 24.5743 
2 *118:6 *118:16 34.9093 
3 *118:16 *512:B1 23 
4 *118:6 *632:A 25.0507 
*END

*D_NET *119 0.00266537
*CONN
*I *630:A I *D sky130_fd_sc_hd__dlygate4sd3_1
*I *514:B1 I *D sky130_fd_sc_hd__a31o_1
*I *584:Q O *D sky130_fd_sc_hd__dfrtp_1
*CAP
1 *630:A 0.000231225
2 *514:B1 0
3 *584:Q 0
4 *119:14 0.000671671
5 *119:4 0.000902897
6 *630:A *183:10 9.61399e-05
7 *119:14 *584:D 0.000165995
8 *119:14 *147:56 5.25848e-05
9 *119:14 *154:78 0.000151247
10 *119:14 *154:90 0
11 *584:RESET_B *119:14 0.000348465
12 *95:62 *119:14 4.51431e-05
*RES
1 *584:Q *119:4 23 
2 *119:4 *119:14 41.2064 
3 *119:14 *514:B1 23 
4 *119:4 *630:A 27.3293 
*END

*D_NET *120 0.00213436
*CONN
*I *637:A I *D sky130_fd_sc_hd__dlygate4sd3_1
*I *516:B1 I *D sky130_fd_sc_hd__a31o_1
*I *585:Q O *D sky130_fd_sc_hd__dfrtp_1
*CAP
1 *637:A 0.000281476
2 *516:B1 0.000467255
3 *585:Q 0.00012572
4 *120:8 0.000874451
5 *516:B1 *516:A2 0.000333738
6 *516:B1 *564:A 0
7 *516:B1 *150:65 1.57375e-05
8 *637:A *564:A 0
9 *637:A *190:10 0
10 *516:A3 *516:B1 0
11 *516:A3 *637:A 0
12 *25:12 *516:B1 3.58084e-06
13 *66:10 *516:B1 2.76611e-06
14 *66:10 *637:A 2.96322e-05
15 *96:32 *637:A 0
*RES
1 *585:Q *120:8 39.5743 
2 *120:8 *516:B1 46.2443 
3 *120:8 *637:A 42.7229 
*END

*D_NET *121 0.00181175
*CONN
*I *647:A I *D sky130_fd_sc_hd__dlygate4sd3_1
*I *520:B1 I *D sky130_fd_sc_hd__a31o_1
*I *586:Q O *D sky130_fd_sc_hd__dfrtp_1
*CAP
1 *647:A 0
2 *520:B1 0
3 *586:Q 0.000177249
4 *121:24 0.000294842
5 *121:16 0.000342798
6 *121:10 0.000225206
7 *121:10 *153:84 0
8 *121:16 *214:8 9.84794e-05
9 *121:24 *523:B1 0
10 *121:24 *141:10 0.000139647
11 *121:24 *151:79 0
12 *121:24 *151:100 0.000422353
13 *121:24 *153:84 0
14 *524:A1 *121:16 0
15 *586:RESET_B *121:10 5.70419e-05
16 *92:20 *121:16 5.41288e-05
*RES
1 *586:Q *121:10 40.6514 
2 *121:10 *121:16 16.595 
3 *121:16 *121:24 36.9186 
4 *121:24 *520:B1 23 
5 *121:16 *647:A 23 
*END

*D_NET *122 0.000993895
*CONN
*I *523:B1 I *D sky130_fd_sc_hd__a31o_1
*I *644:A I *D sky130_fd_sc_hd__dlygate4sd3_1
*I *587:Q O *D sky130_fd_sc_hd__dfrtp_1
*CAP
1 *523:B1 0.000191324
2 *644:A 0
3 *587:Q 0.000148914
4 *122:10 0.000340238
5 *523:B1 *161:10 3.884e-05
6 *122:10 *156:115 4.06849e-05
7 *524:A1 *523:B1 5.50049e-05
8 *52:8 *523:B1 3.70094e-05
9 *52:8 *122:10 0.000141879
10 *82:59 *523:B1 0
11 *121:24 *523:B1 0
*RES
1 *587:Q *122:10 41.0036 
2 *122:10 *644:A 38 
3 *122:10 *523:B1 41.5836 
*END

*D_NET *123 0.00139012
*CONN
*I *649:A I *D sky130_fd_sc_hd__dlygate4sd3_1
*I *525:B1 I *D sky130_fd_sc_hd__a31o_1
*I *588:Q O *D sky130_fd_sc_hd__dfrtp_1
*CAP
1 *649:A 0.000202688
2 *525:B1 0
3 *588:Q 0
4 *123:12 0.000323896
5 *123:4 0.000526583
6 *649:A *162:10 2.64616e-05
7 *123:12 *142:10 0
8 *123:12 *153:19 6.07611e-06
9 *123:12 *164:8 7.1357e-05
10 *54:8 *123:12 0
11 *62:10 *649:A 1.21972e-05
12 *88:93 *123:12 0
13 *91:51 *123:12 8.06039e-05
14 *92:12 *123:12 0
15 *92:20 *649:A 0.000140259
*RES
1 *588:Q *123:4 23 
2 *123:4 *123:12 36.7529 
3 *123:12 *525:B1 23 
4 *123:4 *649:A 26.9564 
*END

*D_NET *124 0.00132761
*CONN
*I *622:A I *D sky130_fd_sc_hd__dlygate4sd3_1
*I *527:B1 I *D sky130_fd_sc_hd__a31o_1
*I *589:Q O *D sky130_fd_sc_hd__dfrtp_1
*CAP
1 *622:A 2.205e-05
2 *527:B1 0.000154815
3 *589:Q 0.000129203
4 *124:10 0.000176865
5 *124:8 0.000129203
6 *527:B1 *151:69 5.50049e-05
7 *527:B1 *157:43 0.000484539
8 *527:B1 *159:12 0.000114846
9 *622:A *157:43 5.50106e-05
10 *124:8 *153:34 0
11 *124:8 *156:115 0
12 *55:8 *124:8 0
13 *94:130 *124:8 0
14 *96:69 *124:8 6.07611e-06
*RES
1 *589:Q *124:8 40.2579 
2 *124:8 *124:10 15 
3 *124:10 *527:B1 28.3857 
4 *124:10 *622:A 23.6214 
*END

*D_NET *125 0.00300769
*CONN
*I *650:A I *D sky130_fd_sc_hd__dlygate4sd3_1
*I *529:B1 I *D sky130_fd_sc_hd__a31o_1
*I *590:Q O *D sky130_fd_sc_hd__dfrtp_1
*CAP
1 *650:A 9.37519e-05
2 *529:B1 0.000356195
3 *590:Q 8.28942e-05
4 *125:10 0.000449946
5 *125:8 8.28942e-05
6 *529:B1 *521:D 5.50049e-05
7 *529:B1 *531:A1 0.000116215
8 *529:B1 *554:A 0.000223698
9 *529:B1 *144:10 4.40338e-05
10 *529:B1 *145:10 0.000431551
11 *529:B1 *151:44 3.22879e-05
12 *529:B1 *153:68 0.000337375
13 *529:B1 *157:25 0.000135037
14 *650:A *145:10 5.50106e-05
15 *650:A *157:25 8.43466e-05
16 *125:8 *157:25 8.51329e-05
17 *57:10 *125:8 0.000194309
18 *95:132 *529:B1 9.67842e-05
19 *96:69 *529:B1 5.12254e-05
*RES
1 *590:Q *125:8 40.61 
2 *125:8 *125:10 15 
3 *125:10 *529:B1 34.1236 
4 *125:10 *650:A 25.0714 
*END

*D_NET *126 0.00221845
*CONN
*I *633:A I *D sky130_fd_sc_hd__dlygate4sd3_1
*I *531:B1 I *D sky130_fd_sc_hd__a31o_1
*I *591:Q O *D sky130_fd_sc_hd__dfrtp_1
*CAP
1 *633:A 0
2 *531:B1 0
3 *591:Q 0
4 *126:25 0.00025442
5 *126:12 0.000687116
6 *126:4 0.000941536
7 *126:12 *591:D 7.24484e-05
8 *126:12 *153:68 2.96051e-05
9 *126:25 *138:50 0
10 *126:25 *145:10 6.48142e-05
11 seg3[5] *126:25 5.09165e-05
12 *590:CLK *126:12 0
13 *591:RESET_B *126:12 8.79516e-05
14 *82:25 *126:12 2.50109e-05
15 *95:132 *126:12 4.6318e-06
*RES
1 *591:Q *126:4 23 
2 *126:4 *126:12 39.1971 
3 *126:12 *531:B1 23 
4 *126:4 *126:25 34.7643 
5 *126:25 *633:A 23 
*END

*D_NET *127 0.0078445
*CONN
*I *474:D_N I *D sky130_fd_sc_hd__nor4b_1
*I *521:B I *D sky130_fd_sc_hd__and4b_2
*I *471:C I *D sky130_fd_sc_hd__and4bb_2
*I *506:C I *D sky130_fd_sc_hd__and4bb_2
*I *603:D I *D sky130_fd_sc_hd__dfrtp_1
*I *473:B I *D sky130_fd_sc_hd__and4b_1
*I *653:X O *D sky130_fd_sc_hd__buf_1
*CAP
1 *474:D_N 2.34823e-05
2 *521:B 6.77732e-05
3 *471:C 0.000136231
4 *506:C 4.24857e-05
5 *603:D 0.0001498
6 *473:B 0.000106348
7 *653:X 7.59234e-05
8 *127:57 0.000398938
9 *127:44 0.000365342
10 *127:20 0.000547737
11 *127:14 0.000688262
12 *127:12 0.000971969
13 *127:8 0.000755659
14 *471:C *471:A_N 0.000176744
15 *471:C *152:14 0.000181499
16 *506:C *152:137 5.50106e-05
17 *521:B *471:A_N 0.00021126
18 *127:8 *138:50 0
19 *127:12 *678:A 0.000228909
20 *127:12 *148:79 0.000181131
21 *127:12 *148:106 0.000178517
22 *127:12 *156:44 0.000245523
23 *471:B_N *471:C 0.000414816
24 *474:C *127:14 0.000228001
25 *530:A1 *127:12 0.000213869
26 *603:RESET_B *127:14 1.22516e-05
27 *616:A *471:C 5.50049e-05
28 *616:A *521:B 0.000180224
29 *655:A *127:12 8.1796e-05
30 *655:A *127:14 6.9805e-05
31 *3:11 *127:8 5.56203e-05
32 *57:10 *127:12 9.88574e-06
33 *77:12 *473:B 0
34 *77:16 *473:B 2.24608e-05
35 *77:16 *603:D 6.25829e-05
36 *77:16 *127:44 0
37 *77:16 *127:57 0
38 *82:33 *127:12 1.76557e-05
39 *83:16 *473:B 0.000138727
40 *83:16 *603:D 6.92691e-05
41 *83:16 *127:14 2.26011e-05
42 *83:16 *127:20 2.92669e-05
43 *84:10 *473:B 0
44 *91:149 *473:B 3.41998e-06
45 *93:93 *473:B 0
46 *93:93 *127:44 9.39056e-05
47 *93:93 *127:57 0.000124154
48 *95:132 *127:12 0.000150642
*RES
1 *653:X *127:8 39.5536 
2 *127:8 *127:12 29.9143 
3 *127:12 *127:14 5.38571 
4 *127:14 *127:20 18.9771 
5 *127:20 *473:B 40.2579 
6 *127:20 *603:D 40.9 
7 *127:14 *127:44 17.61 
8 *127:44 *506:C 38.6214 
9 *127:44 *127:57 18.6664 
10 *127:57 *471:C 29.0279 
11 *127:57 *521:B 25.5271 
12 *127:12 *474:D_N 23.4971 
*END

*D_NET *128 0.00184182
*CONN
*I *660:A I *D sky130_fd_sc_hd__buf_2
*I *493:X O *D sky130_fd_sc_hd__a31o_1
*CAP
1 *660:A 0
2 *493:X 3.83793e-05
3 *128:12 0.000634844
4 *128:8 0.000673223
5 *128:12 *504:B 0.000108681
6 *128:12 *575:D 0.000240695
7 *128:12 *201:23 8.92944e-05
8 *607:A *128:8 5.67058e-05
*RES
1 *493:X *128:8 38.6214 
2 *128:8 *128:12 28.1743 
3 *128:12 *660:A 23 
*END

*D_NET *129 0.00109871
*CONN
*I *661:A I *D sky130_fd_sc_hd__buf_2
*I *495:X O *D sky130_fd_sc_hd__a31o_1
*CAP
1 *661:A 0
2 *495:X 0.000409253
3 *129:8 0.000409253
4 *129:8 *540:A 0
5 *129:8 *155:71 5.72091e-05
6 *129:8 *155:79 9.01041e-05
7 *129:8 *174:8 3.53115e-05
8 *496:A1 *129:8 9.75779e-05
*RES
1 *495:X *129:8 31.1407 
2 *129:8 *661:A 23 
*END

*D_NET *130 0.00171951
*CONN
*I *662:A I *D sky130_fd_sc_hd__buf_2
*I *497:X O *D sky130_fd_sc_hd__a31o_1
*CAP
1 *662:A 0
2 *497:X 0.00044929
3 *130:8 0.00044929
4 *130:8 *665:A 0.000185428
5 *20:10 *130:8 4.06849e-05
6 *73:14 *130:8 0.0001396
7 *91:82 *130:8 0.000400204
8 *94:37 *130:8 5.50106e-05
*RES
1 *497:X *130:8 34.6 
2 *130:8 *662:A 23 
*END

*D_NET *131 0.00244629
*CONN
*I *663:A I *D sky130_fd_sc_hd__buf_2
*I *499:X O *D sky130_fd_sc_hd__a31o_1
*CAP
1 *663:A 5.60099e-05
2 *499:X 0.000775473
3 *131:8 0.000831483
4 *577:CLK *663:A 6.93449e-05
5 *577:RESET_B *131:8 0.000219685
6 *43:10 *663:A 0.000141879
7 *74:33 *131:8 0.000352421
*RES
1 *499:X *131:8 49.1029 
2 *131:8 *663:A 39.9057 
*END

*D_NET *132 0.00410422
*CONN
*I *664:A I *D sky130_fd_sc_hd__buf_2
*I *501:X O *D sky130_fd_sc_hd__a31o_1
*CAP
1 *664:A 0
2 *501:X 0.000537732
3 *132:26 0.00105982
4 *132:14 0.00159755
5 *132:14 *152:26 9.8203e-05
6 *132:14 *206:10 0.00013449
7 *132:26 *503:A 0
8 *132:26 *576:D 0.00012103
9 *132:26 *148:140 0.000363733
10 *42:8 *132:26 2.54046e-05
11 *44:8 *132:14 7.20837e-05
12 *87:8 *132:14 0
13 *87:12 *132:14 0
14 *87:49 *132:26 0
15 *111:10 *132:26 9.41704e-05
*RES
1 *501:X *132:14 47.0521 
2 *132:14 *132:26 47.3379 
3 *132:26 *664:A 38 
*END

*D_NET *133 0.000562909
*CONN
*I *665:A I *D sky130_fd_sc_hd__buf_2
*I *505:X O *D sky130_fd_sc_hd__a31o_1
*CAP
1 *665:A 7.79368e-05
2 *505:X 0.000110804
3 *133:8 0.000188741
4 *91:82 *133:8 0
5 *130:8 *665:A 0.000185428
*RES
1 *505:X *133:8 39.9057 
2 *133:8 *665:A 40.0507 
*END

*D_NET *134 0.00255644
*CONN
*I *666:A I *D sky130_fd_sc_hd__buf_2
*I *508:X O *D sky130_fd_sc_hd__a31o_1
*CAP
1 *666:A 0.000639773
2 *508:X 0.000316631
3 *134:10 0.000956404
4 *666:A *469:A 3.16784e-05
5 *666:A *150:114 4.9662e-05
6 *134:10 *581:D 4.85126e-05
7 *134:10 *154:53 0.000135557
8 *134:10 *208:26 2.60152e-05
9 *505:A3 *666:A 2.98648e-05
10 *80:55 *134:10 8.71791e-05
11 *80:74 *134:10 1.32314e-05
12 *85:89 *134:10 0.000138727
13 *91:103 *666:A 1.21972e-05
14 *93:37 *134:10 7.10099e-05
*RES
1 *508:X *134:10 44.0693 
2 *134:10 *666:A 48.5436 
*END

*D_NET *135 0.000959005
*CONN
*I *667:A I *D sky130_fd_sc_hd__buf_2
*I *510:X O *D sky130_fd_sc_hd__a31o_1
*CAP
1 *667:A 0.000177107
2 *510:X 6.92501e-05
3 *135:8 0.000246357
4 *667:A *207:8 5.71893e-05
5 *667:A *207:18 5.67058e-05
6 *667:A *209:10 1.21972e-05
7 *135:8 *175:10 7.75329e-06
8 *135:8 *208:26 4.17929e-05
9 *135:8 *209:10 8.62783e-05
10 *81:20 *667:A 6.04112e-05
11 *93:55 *135:8 0.000137788
12 *99:14 *667:A 6.17437e-06
*RES
1 *510:X *135:8 40.2579 
2 *135:8 *667:A 41.48 
*END

*D_NET *136 0.00202164
*CONN
*I *668:A I *D sky130_fd_sc_hd__buf_2
*I *512:X O *D sky130_fd_sc_hd__a31o_1
*CAP
1 *668:A 0.000516723
2 *512:X 0.000346354
3 *136:10 0.000863077
4 *668:A *510:A1 9.84794e-05
5 *668:A *510:A2 5.70419e-05
6 *136:10 *518:A 8.09334e-05
7 *136:10 *147:56 4.67488e-05
8 *136:10 *209:10 0
9 *93:41 *668:A 1.22822e-05
10 *117:8 *136:10 0
*RES
1 *512:X *136:10 42.6814 
2 *136:10 *668:A 45.1879 
*END

*D_NET *137 0.000300739
*CONN
*I *669:A I *D sky130_fd_sc_hd__buf_2
*I *514:X O *D sky130_fd_sc_hd__a31o_1
*CAP
1 *669:A 0
2 *514:X 0.000107226
3 *137:8 0.000107226
4 *137:8 *150:65 0
5 *137:8 *154:90 0
6 seg0[6] *137:8 0
7 *584:RESET_B *137:8 8.62876e-05
*RES
1 *514:X *137:8 40.2579 
2 *137:8 *669:A 38 
*END

*D_NET *138 0.0105261
*CONN
*I *621:A I *D sky130_fd_sc_hd__clkbuf_4
*I *619:A I *D sky130_fd_sc_hd__clkbuf_4
*I *620:A I *D sky130_fd_sc_hd__buf_4
*I *654:X O *D sky130_fd_sc_hd__buf_1
*CAP
1 *621:A 0
2 *619:A 0
3 *620:A 0
4 *654:X 0.000469116
5 *138:50 0.00109606
6 *138:31 0.00140062
7 *138:23 0.00258947
8 *138:14 0.000561907
9 *138:14 *488:A2 0
10 *138:14 *156:10 8.68575e-05
11 *138:14 *184:10 2.95461e-05
12 *138:14 *200:10 5.38249e-05
13 *138:23 *156:10 1.44546e-05
14 *138:23 *156:28 8.26312e-05
15 *138:31 *482:A2 0.00056367
16 *138:31 *486:A2 3.22231e-05
17 *138:31 *486:B1 1.94693e-05
18 *138:31 *146:25 0.000481943
19 *138:31 *146:34 3.17516e-05
20 *138:31 *197:10 9.54065e-05
21 *138:50 *145:10 9.21347e-06
22 *138:50 *149:14 0
23 *138:50 *156:28 5.36457e-05
24 *138:50 *156:34 0
25 *138:50 *156:115 0
26 *138:50 *157:10 0.000558185
27 *138:50 *165:10 0.000351617
28 *477:B1 *138:50 0.000193746
29 *478:A1 *138:50 0.000205473
30 *486:A1 *138:31 8.84817e-06
31 *654:A *138:14 0
32 *3:11 *138:50 0
33 *34:10 *138:50 0.000110913
34 *39:8 *138:14 0
35 *57:10 *138:50 0.000213751
36 *82:33 *138:50 0.000191902
37 *82:59 *138:50 8.26672e-05
38 *95:105 *138:14 1.01436e-05
39 *95:105 *138:23 0.000129504
40 *95:118 *138:23 0.000145969
41 *95:118 *138:50 0.000484126
42 *103:10 *138:50 0.000167443
43 *108:27 *138:14 0
44 *126:25 *138:50 0
45 *127:8 *138:50 0
*RES
1 *654:X *138:14 46.3686 
2 *138:14 *620:A 38 
3 *138:14 *138:23 3.66643 
4 *138:23 *138:31 36.5014 
5 *138:31 *619:A 23 
6 *138:23 *138:50 44.5386 
7 *138:50 *621:A 23 
*END

*D_NET *139 0.000132057
*CONN
*I *670:A I *D sky130_fd_sc_hd__buf_2
*I *516:X O *D sky130_fd_sc_hd__a31o_1
*CAP
1 *670:A 3.17394e-05
2 *516:X 3.17394e-05
3 *670:A *516:A2 3.62905e-05
4 *670:A *150:65 0
5 *25:12 *670:A 3.22879e-05
*RES
1 *516:X *670:A 47.1186 
*END

*D_NET *140 0.000361534
*CONN
*I *671:A I *D sky130_fd_sc_hd__buf_2
*I *520:X O *D sky130_fd_sc_hd__a31o_1
*CAP
1 *671:A 5.84486e-05
2 *520:X 0.000110804
3 *140:8 0.000169252
4 seg3[0] *671:A 2.30292e-05
*RES
1 *520:X *140:8 39.9057 
2 *140:8 *671:A 39.0979 
*END

*D_NET *141 0.000955908
*CONN
*I *672:A I *D sky130_fd_sc_hd__buf_2
*I *523:X O *D sky130_fd_sc_hd__a31o_1
*CAP
1 *672:A 0
2 *523:X 0.000334245
3 *141:10 0.000334245
4 *141:10 *523:A2 0.000141052
5 *141:10 *151:79 0
6 *141:10 *151:100 6.7177e-06
7 *121:24 *141:10 0.000139647
*RES
1 *523:X *141:10 44.2971 
2 *141:10 *672:A 38 
*END

*D_NET *142 0.00135696
*CONN
*I *673:A I *D sky130_fd_sc_hd__buf_2
*I *525:X O *D sky130_fd_sc_hd__a31o_1
*CAP
1 *673:A 0
2 *525:X 0.000453156
3 *142:10 0.000453156
4 *142:10 *188:10 0.000179403
5 *54:8 *142:10 0.000102365
6 *88:93 *142:10 0.000112169
7 *92:53 *142:10 5.67058e-05
8 *123:12 *142:10 0
*RES
1 *525:X *142:10 48.9786 
2 *142:10 *673:A 38 
*END

*D_NET *143 0.00135364
*CONN
*I *674:A I *D sky130_fd_sc_hd__buf_2
*I *527:X O *D sky130_fd_sc_hd__a31o_1
*CAP
1 *674:A 0.000531599
2 *527:X 0.00010034
3 *143:8 0.000631939
4 *143:8 *153:34 4.6318e-06
5 *143:8 *153:84 8.51329e-05
*RES
1 *527:X *143:8 40.2579 
2 *143:8 *674:A 47.1971 
*END

*D_NET *144 0.0017555
*CONN
*I *675:A I *D sky130_fd_sc_hd__buf_2
*I *529:X O *D sky130_fd_sc_hd__a31o_1
*CAP
1 *675:A 0.000367681
2 *529:X 0.000284559
3 *144:10 0.000652239
4 *144:10 *531:A1 0.000139357
5 *529:B1 *144:10 4.40338e-05
6 *56:10 *144:10 0.000167452
7 *96:48 *144:10 0
8 *96:69 *144:10 0.00010018
*RES
1 *529:X *144:10 44.2143 
2 *144:10 *675:A 43.4064 
*END

*D_NET *145 0.00155157
*CONN
*I *676:A I *D sky130_fd_sc_hd__buf_2
*I *531:X O *D sky130_fd_sc_hd__a31o_1
*CAP
1 *676:A 0
2 *531:X 0.000470675
3 *145:10 0.000470675
4 *529:B1 *145:10 0.000431551
5 *650:A *145:10 5.50106e-05
6 *57:10 *145:10 4.96264e-05
7 *126:25 *145:10 6.48142e-05
8 *138:50 *145:10 9.21347e-06
*RES
1 *531:X *145:10 45.2914 
2 *145:10 *676:A 38 
*END

*D_NET *146 0.0092272
*CONN
*I *480:A2 I *D sky130_fd_sc_hd__a21o_1
*I *486:A2 I *D sky130_fd_sc_hd__a21o_1
*I *478:A2 I *D sky130_fd_sc_hd__a21o_1
*I *488:A2 I *D sky130_fd_sc_hd__a21o_1
*I *484:A2 I *D sky130_fd_sc_hd__a21o_1
*I *482:A2 I *D sky130_fd_sc_hd__a21o_1
*I *655:X O *D sky130_fd_sc_hd__clkbuf_2
*CAP
1 *480:A2 3.79678e-05
2 *486:A2 0.000104362
3 *478:A2 0.000681698
4 *488:A2 0.00061027
5 *484:A2 0
6 *482:A2 0.00023347
7 *655:X 7.70185e-05
8 *146:36 0.00129197
9 *146:34 0.000178614
10 *146:25 0.000241385
11 *146:12 0.000768231
12 *146:8 0.000482615
13 *478:A2 *156:34 4.5882e-05
14 *478:A2 *169:10 1.58805e-05
15 *478:A2 *195:6 9.77397e-05
16 *480:A2 *147:176 8.55818e-05
17 *482:A2 *197:10 8.76721e-05
18 *482:A2 *198:10 2.94414e-05
19 *486:A2 *486:B1 5.50049e-05
20 *488:A2 *169:10 5.56203e-05
21 *488:A2 *199:8 8.62876e-05
22 *488:A2 *200:10 7.78996e-05
23 *146:8 *156:52 0.000208217
24 *146:12 *156:52 0.00039509
25 *146:25 *484:B1 7.73389e-05
26 *146:25 *198:10 9.24795e-06
27 *484:A1 *146:12 0.000244507
28 *484:A1 *146:25 9.69397e-05
29 *486:A1 *486:A2 5.67058e-05
30 *487:A2 *488:A2 0
31 *568:RESET_B *478:A2 0.000130122
32 *573:RESET_B *488:A2 4.83893e-05
33 *73:33 *478:A2 0
34 *73:33 *488:A2 0
35 *78:14 *146:12 0.000318411
36 *86:16 *482:A2 0.000100733
37 *86:99 *146:12 1.4471e-05
38 *86:116 *146:12 6.7177e-06
39 *92:126 *480:A2 5.50049e-05
40 *92:138 *480:A2 2.02872e-05
41 *94:117 *146:8 0.000217498
42 *94:117 *146:12 0.000538897
43 *95:105 *488:A2 0
44 *95:118 *478:A2 0
45 *107:10 *488:A2 6.79006e-05
46 *108:27 *488:A2 0.000166522
47 *138:14 *488:A2 0
48 *138:31 *482:A2 0.00056367
49 *138:31 *486:A2 3.22231e-05
50 *138:31 *146:25 0.000481943
51 *138:31 *146:34 3.17516e-05
*RES
1 *655:X *146:8 40.9621 
2 *146:8 *146:12 25.7093 
3 *146:12 *482:A2 30.1879 
4 *146:12 *146:25 6.235 
5 *146:25 *484:A2 23 
6 *146:25 *146:34 1.595 
7 *146:34 *146:36 15 
8 *146:36 *488:A2 49.5171 
9 *146:36 *478:A2 48.7093 
10 *146:34 *486:A2 25.5479 
11 *146:8 *480:A2 39.0979 
*END

*D_NET *147 0.0230665
*CONN
*I *477:A2 I *D sky130_fd_sc_hd__a31o_1
*I *479:A2 I *D sky130_fd_sc_hd__a31o_1
*I *483:A2 I *D sky130_fd_sc_hd__a31o_1
*I *481:A2 I *D sky130_fd_sc_hd__a31o_1
*I *516:A2 I *D sky130_fd_sc_hd__a31o_1
*I *505:A2 I *D sky130_fd_sc_hd__a31o_1
*I *510:A2 I *D sky130_fd_sc_hd__a31o_1
*I *514:A2 I *D sky130_fd_sc_hd__a31o_1
*I *512:A2 I *D sky130_fd_sc_hd__a31o_1
*I *508:A2 I *D sky130_fd_sc_hd__a31o_1
*I *612:X O *D sky130_fd_sc_hd__buf_2
*CAP
1 *477:A2 0.000360366
2 *479:A2 0
3 *483:A2 0
4 *481:A2 1.89655e-05
5 *516:A2 0.000661763
6 *505:A2 0
7 *510:A2 0.00011864
8 *514:A2 0
9 *512:A2 0
10 *508:A2 0.000117448
11 *612:X 0.000585346
12 *147:182 0.000379988
13 *147:176 0.000644608
14 *147:125 0.00107438
15 *147:109 0.000987535
16 *147:107 0.0028446
17 *147:103 0.00199223
18 *147:90 0.000422986
19 *147:69 0.000895007
20 *147:63 0.000719884
21 *147:56 0.000818224
22 *147:37 0.0011418
23 *147:29 0.00038148
24 *147:14 0.000760696
25 *477:A2 *148:91 6.50599e-05
26 *477:A2 *148:106 0.000390685
27 *477:A2 *166:16 8.69683e-05
28 *481:A2 *679:A 0
29 *481:A2 *148:20 3.77048e-05
30 *508:A2 *172:8 9.28078e-06
31 *510:A2 *510:A1 4.00259e-06
32 *510:A2 *175:10 9.84794e-05
33 *516:A2 *148:20 2.36109e-05
34 *147:14 *469:A 0.000104649
35 *147:14 *150:35 6.65598e-06
36 *147:14 *150:43 4.73716e-05
37 *147:14 *154:47 0
38 *147:14 *170:10 0
39 *147:14 *172:8 7.26495e-05
40 *147:14 *208:10 1.47563e-05
41 *147:29 *150:43 0.000124635
42 *147:37 *518:A 0.000140935
43 *147:37 *518:C 0
44 *147:37 *150:43 0.000142818
45 *147:37 *150:47 0.000131381
46 *147:37 *150:53 3.70187e-05
47 *147:56 *518:A 0.000137222
48 *147:56 *518:B 0
49 *147:56 *150:53 0
50 *147:56 *150:57 7.4878e-05
51 *147:56 *150:65 1.19796e-05
52 *147:56 *154:53 0.000138828
53 *147:69 *150:97 4.02603e-05
54 *147:69 *175:10 9.67842e-05
55 *147:90 *150:114 0.000177532
56 *147:90 *175:10 7.54991e-05
57 *147:90 *207:18 0
58 *147:107 *154:21 0.000138917
59 *147:109 *570:D 3.36638e-05
60 *147:109 *148:33 0.000163352
61 *147:109 *156:58 5.97612e-05
62 *147:125 *679:A 3.22879e-05
63 *147:125 *148:20 5.1395e-05
64 *147:125 *148:33 1.14452e-05
65 *147:125 *148:49 0
66 *147:125 *156:70 7.16429e-05
67 *147:125 *178:10 0.000108681
68 *147:125 *189:10 0
69 *147:176 *148:75 2.11066e-05
70 *147:176 *150:21 9.84851e-05
71 *147:176 *156:52 0
72 *147:176 *166:16 1.21972e-05
73 *147:176 *196:10 2.93845e-05
74 *480:A2 *147:176 8.55818e-05
75 *510:B1 *147:69 4.6595e-05
76 *516:B1 *516:A2 0.000333738
77 *582:RESET_B *147:56 5.26204e-05
78 *592:RESET_B *147:107 3.84966e-05
79 *594:RESET_B *147:107 8.17866e-05
80 *605:A *147:69 5.9763e-05
81 *605:A *147:103 0.000216417
82 *629:A *147:69 2.64616e-05
83 *668:A *510:A2 5.70419e-05
84 *670:A *516:A2 3.62905e-05
85 *8:8 *516:A2 1.11538e-05
86 *9:12 *147:125 0.000178517
87 *25:12 *516:A2 6.64697e-05
88 *49:8 *147:56 0
89 *58:8 *147:109 8.62783e-05
90 *58:8 *147:176 0.000118174
91 *73:14 *147:14 0.000188934
92 *73:33 *147:182 2.05503e-05
93 *76:12 *147:176 0
94 *80:55 *508:A2 2.09226e-05
95 *80:55 *147:107 1.46871e-05
96 *80:74 *147:90 6.33094e-05
97 *84:27 *147:109 7.75329e-06
98 *85:14 *147:103 3.54728e-05
99 *85:14 *147:107 2.1369e-05
100 *86:16 *147:109 0
101 *86:20 *147:109 0.000128583
102 *86:26 *147:109 0.000274543
103 *86:99 *147:109 0
104 *86:116 *147:109 0
105 *91:149 *147:176 0.000209708
106 *92:106 *508:A2 2.64616e-05
107 *92:126 *147:176 0.000145621
108 *92:138 *147:176 5.61255e-06
109 *93:41 *510:A2 0.000200361
110 *93:41 *147:69 0.000213069
111 *93:55 *147:90 0
112 *93:93 *147:109 0
113 *93:93 *147:176 0
114 *93:101 *147:125 5.67058e-05
115 *94:20 *147:37 1.46286e-05
116 *94:20 *147:56 2.02872e-05
117 *94:37 *508:A2 4.79458e-06
118 *94:37 *147:14 7.61623e-05
119 *94:37 *147:29 3.20135e-05
120 *94:37 *147:37 4.41722e-05
121 *94:91 *147:109 0.000898281
122 *94:91 *147:125 1.22904e-05
123 *94:117 *147:176 1.09783e-05
124 *96:48 *147:182 7.57281e-06
125 *100:10 *147:107 4.56802e-05
126 *100:10 *147:176 0
127 *102:10 *147:107 3.58084e-06
128 *104:26 *477:A2 0.00027853
129 *104:26 *147:176 0
130 *115:12 *147:90 6.93553e-05
131 *115:27 *147:14 8.62783e-05
132 *116:18 *147:14 3.52272e-05
133 *117:8 *147:56 8.94394e-05
134 *118:16 *147:37 4.05745e-05
135 *118:16 *147:56 1.83444e-05
136 *119:14 *147:56 5.25848e-05
137 *136:10 *147:56 4.67488e-05
*RES
1 *612:X *147:14 49.3618 
2 *147:14 *508:A2 40.0404 
3 *147:14 *147:29 1.72964 
4 *147:29 *147:37 21.2143 
5 *147:37 *512:A2 23 
6 *147:37 *147:56 47.69 
7 *147:56 *514:A2 23 
8 *147:29 *147:63 15 
9 *147:63 *147:69 6.98071 
10 *147:69 *510:A2 26.9979 
11 *147:69 *147:90 38.6586 
12 *147:90 *505:A2 23 
13 *147:63 *147:103 35.6343 
14 *147:103 *147:107 36.5843 
15 *147:107 *147:109 16.3436 
16 *147:109 *147:125 24.0729 
17 *147:125 *516:A2 37.79 
18 *147:125 *481:A2 24.1186 
19 *147:109 *483:A2 38 
20 *147:107 *147:176 48.767 
21 *147:176 *147:182 23.3211 
22 *147:182 *479:A2 23 
23 *147:182 *477:A2 31.4307 
*END

*D_NET *148 0.0234203
*CONN
*I *483:A1 I *D sky130_fd_sc_hd__a31o_1
*I *493:A1 I *D sky130_fd_sc_hd__a31o_1
*I *491:A1 I *D sky130_fd_sc_hd__a31o_1
*I *495:A1 I *D sky130_fd_sc_hd__a31o_1
*I *497:A1 I *D sky130_fd_sc_hd__a31o_1
*I *477:A1 I *D sky130_fd_sc_hd__a31o_1
*I *479:A1 I *D sky130_fd_sc_hd__a31o_1
*I *485:A1 I *D sky130_fd_sc_hd__a31o_1
*I *487:A1 I *D sky130_fd_sc_hd__a31o_1
*I *481:A1 I *D sky130_fd_sc_hd__a31o_1
*I *613:X O *D sky130_fd_sc_hd__buf_2
*CAP
1 *483:A1 0
2 *493:A1 8.326e-05
3 *491:A1 9.7845e-05
4 *495:A1 0.000106238
5 *497:A1 0.000438448
6 *477:A1 0
7 *479:A1 0
8 *485:A1 0.000113506
9 *487:A1 2.83744e-05
10 *481:A1 0
11 *613:X 0
12 *148:140 0.000695939
13 *148:136 0.00118588
14 *148:117 0.00276047
15 *148:106 0.000406367
16 *148:91 0.00012133
17 *148:79 0.000669662
18 *148:75 0.00256327
19 *148:62 0.00109663
20 *148:49 0.000748706
21 *148:33 0.000730209
22 *148:20 0.000267543
23 *148:4 0.000550492
24 *487:A1 *682:A 0
25 *491:A1 *491:A2 0.000179108
26 *493:A1 *152:102 5.3304e-05
27 *495:A1 *491:A2 0.000241112
28 *495:A1 *152:32 1.14452e-05
29 *148:20 *679:A 6.07084e-05
30 *148:20 *156:70 0.000373081
31 *148:33 *570:D 0.000111852
32 *148:49 *681:A 2.53297e-05
33 *148:49 *178:10 0
34 *148:49 *189:10 0.000139657
35 *148:62 *189:10 0
36 *148:62 *200:18 0.000201443
37 *148:75 *490:B 9.98891e-05
38 *148:75 *195:14 6.48142e-05
39 *148:75 *196:10 7.30972e-05
40 *148:75 *200:18 2.24973e-05
41 *148:91 *166:16 2.36392e-05
42 *148:106 *158:8 6.33511e-05
43 *148:136 *504:B 0.000250262
44 *477:A2 *148:91 6.50599e-05
45 *477:A2 *148:106 0.000390685
46 *481:A2 *148:20 3.77048e-05
47 *483:B1 *148:33 0
48 *483:B1 *148:49 0.000187129
49 *484:A1 *148:75 0.000104525
50 *487:A2 *148:62 0.000129838
51 *487:A2 *148:75 1.58805e-05
52 *492:A1 *491:A1 9.21347e-06
53 *493:A3 *493:A1 1.21972e-05
54 *516:A2 *148:20 2.36109e-05
55 *570:CLK *148:49 2.4754e-05
56 *573:CLK *148:49 2.18409e-05
57 *590:CLK *148:117 6.16439e-05
58 *607:A *493:A1 0.000178517
59 *607:A *148:140 5.50049e-05
60 *4:15 *148:136 0
61 *4:15 *148:140 0.000153725
62 *8:8 *148:20 0.000358425
63 *9:12 *148:20 8.94394e-05
64 *11:8 *148:49 1.46756e-05
65 *11:8 *148:62 3.58084e-06
66 *35:8 *148:106 0.000133316
67 *72:30 *148:136 0.000111852
68 *72:53 *148:136 9.63408e-05
69 *73:14 *497:A1 2.00767e-05
70 *73:31 *497:A1 0.000304225
71 *73:31 *148:117 0.00217644
72 *73:33 *148:75 0.000549249
73 *73:33 *148:91 4.7568e-05
74 *73:33 *148:117 0.000145844
75 *78:14 *148:75 0
76 *79:14 *148:136 0.000191148
77 *91:110 *491:A1 4.48258e-05
78 *91:110 *495:A1 3.21791e-05
79 *93:101 *148:20 0.0001771
80 *94:37 *497:A1 5.90675e-06
81 *94:117 *148:75 0.000103813
82 *94:117 *148:117 0.000113044
83 *95:94 *485:A1 6.09174e-05
84 *95:105 *485:A1 4.5051e-05
85 *96:48 *148:91 0.000107218
86 *96:87 *148:136 7.56033e-05
87 *96:102 *148:136 0.000110913
88 *96:117 *148:33 0.000219383
89 *96:117 *148:62 0.000293785
90 *98:10 *148:136 0.000141689
91 *104:12 *148:106 5.50049e-05
92 *104:26 *148:91 0.000114561
93 *104:26 *148:106 9.5877e-05
94 *108:14 *148:62 3.83778e-05
95 *111:10 *495:A1 0.000138708
96 *112:29 *497:A1 0.000103405
97 *127:12 *148:79 0.000181131
98 *127:12 *148:106 0.000178517
99 *132:26 *148:140 0.000363733
100 *147:109 *148:33 0.000163352
101 *147:125 *148:20 5.1395e-05
102 *147:125 *148:33 1.14452e-05
103 *147:125 *148:49 0
104 *147:176 *148:75 2.11066e-05
*RES
1 *613:X *148:4 23 
2 *148:4 *148:20 40.7921 
3 *148:20 *481:A1 23 
4 *148:4 *148:33 34.785 
5 *148:33 *148:49 38.0993 
6 *148:49 *487:A1 23.8493 
7 *148:49 *148:62 22.8093 
8 *148:62 *485:A1 40.0714 
9 *148:62 *148:75 16.6957 
10 *148:75 *148:79 17.0507 
11 *148:79 *148:91 33.2988 
12 *148:91 *479:A1 23 
13 *148:79 *148:106 38.3893 
14 *148:106 *477:A1 23 
15 *148:75 *148:117 44.1657 
16 *148:117 *497:A1 30.1879 
17 *148:117 *148:136 44.2929 
18 *148:136 *148:140 25.6264 
19 *148:140 *495:A1 41.3143 
20 *148:140 *491:A1 40.61 
21 *148:136 *493:A1 25.0507 
22 *148:33 *483:A1 23 
*END

*D_NET *149 0.00139955
*CONN
*I *677:A I *D sky130_fd_sc_hd__buf_2
*I *477:X O *D sky130_fd_sc_hd__a31o_1
*CAP
1 *677:A 0
2 *477:X 0.000377909
3 *149:14 0.000377909
4 *149:14 *156:28 4.6318e-06
5 *149:14 *181:10 0.000168754
6 *478:A1 *149:14 0.000384805
7 *6:8 *149:14 7.27007e-05
8 *34:10 *149:14 1.28427e-05
9 *138:50 *149:14 0
*RES
1 *477:X *149:14 46.9279 
2 *149:14 *677:A 38 
*END

*D_NET *150 0.014846
*CONN
*I *474:A I *D sky130_fd_sc_hd__nor4b_1
*I *473:D I *D sky130_fd_sc_hd__and4b_1
*I *508:A1 I *D sky130_fd_sc_hd__a31o_1
*I *505:A1 I *D sky130_fd_sc_hd__a31o_1
*I *510:A1 I *D sky130_fd_sc_hd__a31o_1
*I *512:A1 I *D sky130_fd_sc_hd__a31o_1
*I *468:A I *D sky130_fd_sc_hd__inv_2
*I *514:A1 I *D sky130_fd_sc_hd__a31o_1
*I *516:A1 I *D sky130_fd_sc_hd__a31o_1
*I *506:D I *D sky130_fd_sc_hd__and4bb_2
*I *614:X O *D sky130_fd_sc_hd__buf_2
*CAP
1 *474:A 0
2 *473:D 2.34823e-05
3 *508:A1 0
4 *505:A1 0
5 *510:A1 6.41242e-05
6 *512:A1 0
7 *468:A 8.64082e-05
8 *514:A1 0
9 *516:A1 0
10 *506:D 0.000267258
11 *614:X 0
12 *150:114 0.000425245
13 *150:97 0.000754058
14 *150:65 0.000652516
15 *150:57 0.000762896
16 *150:53 0.000638463
17 *150:47 0.000536274
18 *150:43 0.000680505
19 *150:35 0.00189909
20 *150:21 0.00209886
21 *150:15 0.000590167
22 *150:4 0.000359925
23 *506:D *152:137 0.000311549
24 *150:15 *152:137 0.000151907
25 *150:15 *156:52 0
26 *150:21 *152:137 1.14452e-05
27 *150:21 *156:52 0
28 *150:35 *154:29 0
29 *150:53 *518:C 0
30 *150:53 *546:A 1.34542e-05
31 *150:53 *154:53 6.29985e-05
32 *150:53 *154:78 0
33 *150:53 *210:20 5.21127e-05
34 *150:65 *154:90 0.000100805
35 *150:114 *209:10 0
36 seg0[6] *150:65 4.65412e-05
37 seg2[4] *150:65 0.000143543
38 *473:C *150:35 3.53115e-05
39 *475:B1 *150:21 4.95081e-05
40 *505:A3 *150:114 5.67058e-05
41 *510:A2 *510:A1 4.00259e-06
42 *510:B1 *510:A1 9.84794e-05
43 *510:B1 *150:97 0.000227208
44 *512:A3 *150:47 1.02029e-05
45 *516:B1 *150:65 1.57375e-05
46 *584:RESET_B *150:53 0.000137174
47 *584:RESET_B *150:57 1.52259e-05
48 *584:RESET_B *150:65 4.06512e-05
49 *605:A *150:43 2.43944e-05
50 *605:A *150:97 3.22465e-05
51 *629:A *150:97 4.08664e-05
52 *666:A *150:114 4.9662e-05
53 *668:A *510:A1 9.84794e-05
54 *670:A *150:65 0
55 *25:12 *150:65 5.50106e-05
56 *50:8 *150:65 7.89191e-05
57 *69:8 *150:15 3.31683e-05
58 *72:10 *468:A 4.9662e-05
59 *73:31 *506:D 8.06804e-06
60 *76:12 *150:21 0
61 *77:12 *150:21 9.84851e-05
62 *80:74 *150:114 6.10775e-05
63 *83:16 *150:35 9.84794e-05
64 *85:14 *150:43 0
65 *91:6 *150:35 2.93845e-05
66 *91:103 *150:114 0.000409481
67 *91:149 *150:35 6.53382e-05
68 *92:80 *150:35 0.000120405
69 *92:126 *150:21 0.000146119
70 *92:126 *150:35 0.000114205
71 *93:37 *150:114 7.52562e-05
72 *93:41 *510:A1 2.4754e-05
73 *93:55 *150:114 0
74 *94:37 *150:47 3.58626e-05
75 *95:70 *150:57 8.41115e-05
76 *95:70 *150:65 6.07611e-06
77 *96:87 *150:35 0
78 *99:14 *150:35 0.000293269
79 *115:12 *150:114 0.000138727
80 *116:18 *150:35 2.26406e-05
81 *118:16 *150:47 2.46345e-05
82 *118:16 *150:53 0.00021039
83 *137:8 *150:65 0
84 *147:14 *150:35 6.65598e-06
85 *147:14 *150:43 4.73716e-05
86 *147:29 *150:43 0.000124635
87 *147:37 *150:43 0.000142818
88 *147:37 *150:47 0.000131381
89 *147:37 *150:53 3.70187e-05
90 *147:56 *150:53 0
91 *147:56 *150:57 7.4878e-05
92 *147:56 *150:65 1.19796e-05
93 *147:69 *150:97 4.02603e-05
94 *147:90 *150:114 0.000177532
95 *147:176 *150:21 9.84851e-05
*RES
1 *614:X *150:4 23 
2 *150:4 *506:D 26.9564 
3 *150:4 *150:15 17.2579 
4 *150:15 *150:21 24.4198 
5 *150:21 *150:35 44.7781 
6 *150:35 *150:43 20.7379 
7 *150:43 *150:47 16.9057 
8 *150:47 *150:53 10.1914 
9 *150:53 *150:57 3.58357 
10 *150:57 *150:65 28.0086 
11 *150:65 *516:A1 23 
12 *150:57 *514:A1 38 
13 *150:53 *468:A 39.5743 
14 *150:47 *512:A1 38 
15 *150:43 *150:97 5.40643 
16 *150:97 *510:A1 25.0714 
17 *150:97 *150:114 40.3986 
18 *150:114 *505:A1 23 
19 *150:35 *508:A1 38 
20 *150:21 *473:D 23.4971 
21 *150:15 *474:A 38 
*END

*D_NET *151 0.0121937
*CONN
*I *527:A1 I *D sky130_fd_sc_hd__a31o_1
*I *525:A1 I *D sky130_fd_sc_hd__a31o_1
*I *523:A1 I *D sky130_fd_sc_hd__a31o_1
*I *520:A1 I *D sky130_fd_sc_hd__a31o_1
*I *521:C I *D sky130_fd_sc_hd__and4b_2
*I *531:A1 I *D sky130_fd_sc_hd__a31o_1
*I *529:A1 I *D sky130_fd_sc_hd__a31o_1
*I *471:A_N I *D sky130_fd_sc_hd__and4bb_2
*I *472:B1 I *D sky130_fd_sc_hd__a21o_1
*I *615:X O *D sky130_fd_sc_hd__clkbuf_2
*CAP
1 *527:A1 0
2 *525:A1 0.000353612
3 *523:A1 0
4 *520:A1 0
5 *521:C 0
6 *531:A1 0.000125803
7 *529:A1 0
8 *471:A_N 0.000256682
9 *472:B1 6.80278e-05
10 *615:X 0.000247348
11 *151:100 0.00053226
12 *151:79 0.000828289
13 *151:73 0.000865411
14 *151:69 0.000403171
15 *151:44 0.000416508
16 *151:31 0.000669088
17 *151:27 0.000353683
18 *151:23 0.000530631
19 *151:12 0.000179275
20 *151:10 0.000247348
21 *471:A_N *152:6 5.50106e-05
22 *471:A_N *152:14 6.87281e-05
23 *472:B1 *472:A1 2.02517e-05
24 *472:B1 *157:47 0.000141954
25 *525:A1 *522:B1 5.67058e-05
26 *525:A1 *213:10 1.14876e-05
27 *151:10 *526:B1 5.50049e-05
28 *151:10 *163:8 0
29 *151:23 *157:45 4.08664e-05
30 *151:23 *157:47 0.000181125
31 *151:27 *157:81 0.000456486
32 *151:44 *521:D 0.000188766
33 *151:69 *157:43 0.000101567
34 *151:69 *157:45 0.000354122
35 *151:69 *159:12 5.67058e-05
36 *151:73 *153:34 5.38247e-05
37 *151:73 *153:36 1.01436e-05
38 *151:73 *153:84 0.000157043
39 *151:79 *552:A 0
40 *151:79 *587:D 0.000357921
41 *151:79 *153:84 0.000501322
42 *151:79 *153:92 0.000169683
43 *151:100 *523:A2 0.000139319
44 *471:C *471:A_N 0.000176744
45 *521:B *471:A_N 0.00021126
46 *522:A1 *525:A1 0.000137651
47 *522:A2 *525:A1 5.50049e-05
48 *524:A1 *151:100 1.32939e-05
49 *527:B1 *151:69 5.50049e-05
50 *529:B1 *531:A1 0.000116215
51 *529:B1 *151:44 3.22879e-05
52 *608:A *151:10 8.82787e-05
53 *616:A *151:27 6.07003e-05
54 *616:A *151:31 3.3123e-05
55 *617:A *151:23 2.93747e-05
56 *71:10 *472:B1 1.94812e-05
57 *82:8 *151:27 0
58 *82:8 *151:31 0
59 *83:49 *151:31 1.34354e-05
60 *88:14 *151:69 0.000268074
61 *88:14 *151:73 9.42761e-05
62 *88:22 *151:27 6.7177e-06
63 *88:78 *151:73 3.72624e-05
64 *88:78 *151:79 0
65 *88:80 *525:A1 0.000197405
66 *91:32 *151:27 0.000404986
67 *91:51 *151:79 4.14048e-05
68 *93:87 *525:A1 2.02517e-05
69 *93:93 *151:10 0.000161121
70 *95:132 *531:A1 9.67842e-05
71 *121:24 *151:79 0
72 *121:24 *151:100 0.000422353
73 *141:10 *151:79 0
74 *141:10 *151:100 6.7177e-06
75 *144:10 *531:A1 0.000139357
*RES
1 *615:X *151:10 43.2614 
2 *151:10 *151:12 15 
3 *151:12 *472:B1 25.0714 
4 *151:12 *151:23 2.52714 
5 *151:23 *151:27 22.8921 
6 *151:27 *151:31 16.5536 
7 *151:31 *471:A_N 28.8829 
8 *151:31 *151:44 6.83571 
9 *151:44 *529:A1 23 
10 *151:44 *531:A1 26.48 
11 *151:27 *521:C 38 
12 *151:23 *151:69 6.50429 
13 *151:69 *151:73 20.6032 
14 *151:73 *151:79 24.7461 
15 *151:79 *520:A1 23 
16 *151:79 *151:100 40.8336 
17 *151:100 *523:A1 23 
18 *151:73 *525:A1 45.3121 
19 *151:69 *527:A1 23 
*END

*D_NET *152 0.0133918
*CONN
*I *474:B I *D sky130_fd_sc_hd__nor4b_1
*I *506:A_N I *D sky130_fd_sc_hd__and4bb_2
*I *471:D I *D sky130_fd_sc_hd__and4bb_2
*I *493:A2 I *D sky130_fd_sc_hd__a31o_1
*I *501:A2 I *D sky130_fd_sc_hd__a31o_1
*I *499:A2 I *D sky130_fd_sc_hd__a31o_1
*I *497:A2 I *D sky130_fd_sc_hd__a31o_1
*I *469:A I *D sky130_fd_sc_hd__inv_2
*I *491:A2 I *D sky130_fd_sc_hd__a31o_1
*I *495:A2 I *D sky130_fd_sc_hd__a31o_1
*I *616:X O *D sky130_fd_sc_hd__buf_2
*CAP
1 *474:B 0
2 *506:A_N 1.08768e-05
3 *471:D 0
4 *493:A2 0
5 *501:A2 2.30556e-05
6 *499:A2 0
7 *497:A2 0
8 *469:A 0.000473702
9 *491:A2 0.000319341
10 *495:A2 0
11 *616:X 3.3552e-05
12 *152:137 0.000356048
13 *152:118 0.000500566
14 *152:102 0.000300108
15 *152:54 0.000609735
16 *152:52 0.000263184
17 *152:32 0.000760416
18 *152:26 0.000813349
19 *152:24 0.000521215
20 *152:22 0.000947774
21 *152:14 0.000696286
22 *152:6 0.000468848
23 *152:22 *155:46 0.000240416
24 *152:24 *504:B 5.50106e-05
25 *471:A_N *152:6 5.50106e-05
26 *471:A_N *152:14 6.87281e-05
27 *471:B_N *152:14 2.02872e-05
28 *471:C *152:14 0.000181499
29 *474:C *152:137 0
30 *491:A1 *491:A2 0.000179108
31 *493:A1 *152:102 5.3304e-05
32 *493:A3 *152:102 2.64616e-05
33 *495:A1 *491:A2 0.000241112
34 *495:A1 *152:32 1.14452e-05
35 *500:A1 *152:54 0
36 *501:A3 *152:24 1.10658e-05
37 *501:A3 *152:26 2.07484e-05
38 *501:B1 *152:24 0.000309615
39 *505:A3 *469:A 0
40 *506:C *152:137 5.50106e-05
41 *506:D *152:137 0.000311549
42 *578:RESET_B *152:26 9.43689e-05
43 *578:RESET_B *152:32 7.42621e-05
44 *602:RESET_B *152:22 5.3304e-05
45 *607:A *152:102 1.41129e-05
46 *625:A *152:22 0.000168687
47 *625:A *152:24 9.5877e-05
48 *666:A *469:A 3.16784e-05
49 *4:15 *152:102 0.000555024
50 *72:53 *152:24 2.46906e-05
51 *73:31 *152:137 1.40958e-05
52 *74:12 *152:14 5.90675e-06
53 *74:67 *491:A2 0
54 *77:16 *152:118 7.45997e-05
55 *80:8 *506:A_N 5.67058e-05
56 *80:8 *152:137 4.34745e-05
57 *84:36 *152:22 0.000243578
58 *90:8 *152:22 4.61321e-05
59 *90:16 *506:A_N 5.50049e-05
60 *90:16 *152:137 0.000332645
61 *91:30 *152:22 0.000135037
62 *91:82 *152:32 0
63 *91:110 *152:32 0
64 *92:80 *152:102 0.000578068
65 *93:12 *152:102 1.37349e-05
66 *93:37 *469:A 0
67 *93:37 *491:A2 2.55642e-05
68 *93:37 *152:32 0.000372161
69 *94:37 *469:A 0
70 *94:49 *469:A 1.14452e-05
71 *94:49 *152:52 0.000228051
72 *94:49 *152:54 0.000206288
73 *98:10 *152:24 5.73288e-05
74 *110:27 *152:102 5.50106e-05
75 *113:6 *152:32 0.000180218
76 *113:19 *152:26 8.53029e-05
77 *113:19 *152:32 5.3304e-05
78 *113:19 *152:52 9.58769e-05
79 *113:19 *152:54 5.58975e-06
80 *132:14 *152:26 9.8203e-05
81 *147:14 *469:A 0.000104649
82 *150:15 *152:137 0.000151907
83 *150:21 *152:137 1.14452e-05
*RES
1 *616:X *152:6 23.6214 
2 *152:6 *152:14 5.44786 
3 *152:14 *152:22 39.1764 
4 *152:22 *152:24 5.38571 
5 *152:24 *152:26 4.90929 
6 *152:26 *152:32 24.0314 
7 *152:32 *495:A2 38 
8 *152:32 *491:A2 43.7793 
9 *152:26 *152:52 18.3143 
10 *152:52 *152:54 2.96214 
11 *152:54 *469:A 45.83 
12 *152:54 *497:A2 38 
13 *152:52 *499:A2 38 
14 *152:24 *501:A2 23.4971 
15 *152:22 *152:102 39.6114 
16 *152:102 *493:A2 23 
17 *152:14 *471:D 23 
18 *152:6 *152:118 32.2579 
19 *152:118 *506:A_N 23.6214 
20 *152:118 *152:137 39.5907 
21 *152:137 *474:B 23 
*END

*D_NET *153 0.0109825
*CONN
*I *523:A2 I *D sky130_fd_sc_hd__a31o_1
*I *520:A2 I *D sky130_fd_sc_hd__a31o_1
*I *527:A2 I *D sky130_fd_sc_hd__a31o_1
*I *531:A2 I *D sky130_fd_sc_hd__a31o_1
*I *521:D I *D sky130_fd_sc_hd__and4b_2
*I *529:A2 I *D sky130_fd_sc_hd__a31o_1
*I *525:A2 I *D sky130_fd_sc_hd__a31o_1
*I *476:B2 I *D sky130_fd_sc_hd__o2bb2a_1
*I *617:X O *D sky130_fd_sc_hd__clkbuf_2
*CAP
1 *523:A2 0.000217003
2 *520:A2 0
3 *527:A2 0
4 *531:A2 0
5 *521:D 0.00040491
6 *529:A2 7.22307e-05
7 *525:A2 0
8 *476:B2 0.000269147
9 *617:X 0
10 *153:92 0.000115233
11 *153:84 0.000750102
12 *153:68 0.00030041
13 *153:51 0.00070532
14 *153:36 0.000305837
15 *153:34 0.00033689
16 *153:28 0.00107151
17 *153:19 0.000203581
18 *153:13 0.000797003
19 *153:4 0.000312209
20 *476:B2 *157:47 0.000400193
21 *153:13 *157:47 4.2573e-05
22 *153:28 *157:43 0.000262858
23 *153:28 *157:45 0.000395901
24 *153:28 *157:47 8.52481e-05
25 *153:36 *159:12 0.000195157
26 *524:A1 *523:A2 5.67943e-05
27 *529:B1 *521:D 5.50049e-05
28 *529:B1 *153:68 0.000337375
29 *590:CLK *529:A2 4.15652e-05
30 *590:CLK *153:36 3.3746e-05
31 *82:8 *153:36 0
32 *82:66 *153:36 0
33 *91:32 *153:19 0
34 *91:51 *153:19 0
35 *91:51 *153:92 0.000171906
36 *92:20 *523:A2 0.00051819
37 *92:20 *153:92 9.58714e-05
38 *93:91 *153:19 0.000193398
39 *93:93 *153:19 0.000166522
40 *94:117 *529:A2 3.08539e-05
41 *94:117 *153:36 3.3746e-05
42 *94:130 *153:34 1.14452e-05
43 *94:130 *153:36 0.000487452
44 *96:69 *153:68 1.86869e-05
45 *121:10 *153:84 0
46 *121:24 *153:84 0
47 *123:12 *153:19 6.07611e-06
48 *124:8 *153:34 0
49 *126:12 *153:68 2.96051e-05
50 *141:10 *523:A2 0.000141052
51 *143:8 *153:34 4.6318e-06
52 *143:8 *153:84 8.51329e-05
53 *151:44 *521:D 0.000188766
54 *151:73 *153:34 5.38247e-05
55 *151:73 *153:36 1.01436e-05
56 *151:73 *153:84 0.000157043
57 *151:79 *153:84 0.000501322
58 *151:79 *153:92 0.000169683
59 *151:100 *523:A2 0.000139319
*RES
1 *617:X *153:4 23 
2 *153:4 *476:B2 27.4329 
3 *153:4 *153:13 0.621429 
4 *153:13 *153:19 34.7229 
5 *153:19 *525:A2 23 
6 *153:13 *153:28 23.2443 
7 *153:28 *153:34 1.96786 
8 *153:34 *153:36 7.54 
9 *153:36 *529:A2 39.6157 
10 *153:36 *153:51 15 
11 *153:51 *521:D 29.3593 
12 *153:51 *153:68 34.8057 
13 *153:68 *531:A2 23 
14 *153:34 *527:A2 38 
15 *153:28 *153:84 26.0614 
16 *153:84 *153:92 33.3557 
17 *153:92 *520:A2 23 
18 *153:84 *523:A2 30.1879 
*END

*D_NET *154 0.0142211
*CONN
*I *562:A I *D sky130_fd_sc_hd__inv_2
*I *558:A I *D sky130_fd_sc_hd__inv_2
*I *559:A I *D sky130_fd_sc_hd__inv_2
*I *545:A I *D sky130_fd_sc_hd__inv_2
*I *544:A I *D sky130_fd_sc_hd__inv_2
*I *546:A I *D sky130_fd_sc_hd__inv_2
*I *549:A I *D sky130_fd_sc_hd__inv_2
*I *548:A I *D sky130_fd_sc_hd__inv_2
*I *547:A I *D sky130_fd_sc_hd__inv_2
*I *563:A I *D sky130_fd_sc_hd__inv_2
*I *618:X O *D sky130_fd_sc_hd__buf_4
*CAP
1 *562:A 2.53239e-05
2 *558:A 0
3 *559:A 0
4 *545:A 0.000313569
5 *544:A 0
6 *546:A 0.000354346
7 *549:A 0
8 *548:A 0
9 *547:A 0.000279847
10 *563:A 0.000497047
11 *618:X 0
12 *154:90 0.000362875
13 *154:78 0.000661006
14 *154:66 0.000873388
15 *154:53 0.00108284
16 *154:47 0.00127741
17 *154:35 0.00130477
18 *154:29 0.000724306
19 *154:21 0.000788711
20 *154:6 0.000857325
21 *154:4 2.53239e-05
22 *547:A *584:D 5.2894e-05
23 *563:A *155:21 0
24 *563:A *186:8 0
25 *154:29 *192:12 0.000429621
26 *154:35 *170:10 8.15864e-05
27 *154:47 *170:10 0.000191157
28 *154:47 *208:10 0.000178227
29 *154:47 *208:26 5.3304e-05
30 *154:53 *208:26 6.16531e-05
31 *154:66 *584:D 8.97364e-05
32 *154:78 *515:B1 0.000144494
33 *154:78 *585:D 0
34 *154:90 *585:D 4.3041e-05
35 seg0[6] *154:90 0.000135535
36 *512:A3 *154:53 4.22943e-05
37 *515:A2 *154:78 0.000144494
38 *516:A3 *154:90 0
39 *581:RESET_B *154:35 0.000191255
40 *584:CLK *547:A 4.84101e-05
41 *584:RESET_B *154:78 5.55278e-05
42 *584:RESET_B *154:90 0
43 *624:A *154:35 8.72296e-05
44 *632:A *546:A 5.56356e-05
45 *48:12 *546:A 0.000213419
46 *51:8 *154:90 0.000111462
47 *61:10 *154:29 1.21972e-05
48 *61:10 *154:35 3.7122e-06
49 *64:8 *563:A 0
50 *73:31 *545:A 0.000159101
51 *80:8 *545:A 1.32314e-05
52 *84:10 *154:21 0.000108672
53 *84:27 *562:A 0.00014196
54 *85:33 *154:47 1.08978e-05
55 *85:35 *154:47 0.00011795
56 *92:80 *154:29 0
57 *92:106 *154:47 0.000114156
58 *93:37 *154:53 7.52665e-05
59 *94:37 *154:53 0.000220274
60 *95:10 *563:A 4.66036e-05
61 *95:62 *154:90 0
62 *96:48 *562:A 0.00014196
63 *102:10 *154:21 0.000116554
64 *115:27 *154:47 2.46906e-05
65 *116:12 *154:47 2.04934e-05
66 *117:8 *154:53 0.000260885
67 *118:16 *154:53 5.16012e-05
68 *119:14 *154:78 0.000151247
69 *119:14 *154:90 0
70 *134:10 *154:53 0.000135557
71 *137:8 *154:90 0
72 *147:14 *154:47 0
73 *147:56 *154:53 0.000138828
74 *147:107 *154:21 0.000138917
75 *150:35 *154:29 0
76 *150:53 *546:A 1.34542e-05
77 *150:53 *154:53 6.29985e-05
78 *150:53 *154:78 0
79 *150:65 *154:90 0.000100805
*RES
1 *618:X *154:4 23 
2 *154:4 *154:6 15 
3 *154:6 *563:A 46.2443 
4 *154:6 *154:21 22.7471 
5 *154:21 *154:29 38.7829 
6 *154:29 *154:35 21.4836 
7 *154:35 *154:47 26.9729 
8 *154:47 *154:53 43.1743 
9 *154:53 *547:A 27.3293 
10 *154:53 *154:66 18.0036 
11 *154:66 *154:78 21.9807 
12 *154:78 *154:90 37.6436 
13 *154:90 *548:A 23 
14 *154:78 *549:A 23 
15 *154:66 *546:A 45.2914 
16 *154:47 *544:A 23 
17 *154:35 *545:A 43.6136 
18 *154:29 *559:A 23 
19 *154:21 *558:A 23 
20 *154:4 *562:A 24.5743 
*END

*D_NET *155 0.0166735
*CONN
*I *539:A I *D sky130_fd_sc_hd__inv_2
*I *538:A I *D sky130_fd_sc_hd__inv_2
*I *557:A I *D sky130_fd_sc_hd__inv_2
*I *542:A I *D sky130_fd_sc_hd__inv_2
*I *540:A I *D sky130_fd_sc_hd__inv_2
*I *541:A I *D sky130_fd_sc_hd__inv_2
*I *543:A I *D sky130_fd_sc_hd__inv_2
*I *618:A I *D sky130_fd_sc_hd__buf_4
*I *564:A I *D sky130_fd_sc_hd__inv_2
*I *619:X O *D sky130_fd_sc_hd__clkbuf_4
*CAP
1 *539:A 0
2 *538:A 0
3 *557:A 0
4 *542:A 2.00578e-05
5 *540:A 2.34823e-05
6 *541:A 0
7 *543:A 9.91829e-05
8 *618:A 1.49804e-05
9 *564:A 0.000502482
10 *619:X 0.000169902
11 *155:121 0.000481413
12 *155:113 0.000982196
13 *155:100 0.000655871
14 *155:79 0.000202807
15 *155:71 0.00109591
16 *155:63 0.00174146
17 *155:57 0.00110579
18 *155:46 0.00099493
19 *155:21 0.00105692
20 *155:8 0.000917504
21 *540:A *174:8 0
22 *155:46 *185:12 6.85264e-05
23 *155:71 *174:8 0.00052451
24 *155:79 *503:A 0
25 *155:100 *157:59 0
26 *155:100 *185:12 0
27 *155:113 *157:59 0
28 *155:113 *201:23 0
29 *155:113 *215:10 0
30 *155:121 *201:23 0.000580468
31 seg1[5] *155:79 0.00012758
32 *516:B1 *564:A 0
33 *563:A *155:21 0
34 *593:CLK *155:63 2.79628e-05
35 *593:CLK *155:71 8.39736e-05
36 *593:D *155:63 5.54294e-05
37 *593:RESET_B *155:63 9.35646e-05
38 *601:D *155:46 1.32314e-05
39 *603:CLK *155:21 0.000161121
40 *603:CLK *155:46 0.000282316
41 *605:A *618:A 5.50106e-05
42 *628:A *155:71 0.000143835
43 *637:A *564:A 0
44 *640:A *564:A 0
45 *36:8 *564:A 0
46 *59:8 *155:100 0.000197479
47 *65:10 *564:A 1.22906e-05
48 *66:10 *564:A 3.22879e-05
49 *68:10 *155:46 0.000191148
50 *68:10 *155:57 4.3407e-05
51 *68:10 *155:100 2.76611e-06
52 *84:10 *155:46 0.000658703
53 *84:36 *155:46 0.000304041
54 *86:65 *564:A 0.000114092
55 *86:65 *155:21 0.000325002
56 *87:49 *155:79 5.25841e-05
57 *88:105 *155:121 0
58 *91:20 *155:46 0.000813702
59 *91:64 *543:A 0.00010018
60 *91:64 *155:46 8.52481e-05
61 *91:72 *543:A 0.00014196
62 *92:61 *155:113 0
63 *93:12 *155:100 0
64 *93:12 *155:113 0
65 *93:20 *155:57 0
66 *93:20 *155:100 0
67 *93:33 *155:63 4.54556e-05
68 *95:10 *564:A 0.000150977
69 *95:10 *155:8 5.50106e-05
70 *95:10 *155:21 3.70187e-05
71 *95:12 *564:A 5.33597e-05
72 *95:18 *564:A 0.000180019
73 *96:48 *618:A 5.50106e-05
74 *101:6 *155:63 8.91468e-07
75 *101:25 *155:100 0.000141879
76 *102:10 *155:46 0.000108681
77 *105:8 *564:A 0.00010018
78 *110:8 *155:113 0
79 *110:27 *155:113 0
80 *129:8 *540:A 0
81 *129:8 *155:71 5.72091e-05
82 *129:8 *155:79 9.01041e-05
83 *152:22 *155:46 0.000240416
*RES
1 *619:X *155:8 40.0507 
2 *155:8 *564:A 49.02 
3 *155:8 *155:21 6.48357 
4 *155:21 *618:A 38.6214 
5 *155:21 *155:46 38.9457 
6 *155:46 *543:A 25.5271 
7 *155:46 *155:57 16.9057 
8 *155:57 *155:63 25.6471 
9 *155:63 *155:71 14.1479 
10 *155:71 *155:79 34.785 
11 *155:79 *541:A 23 
12 *155:71 *540:A 23.4971 
13 *155:63 *542:A 23.4971 
14 *155:57 *155:100 4.01857 
15 *155:100 *557:A 38 
16 *155:100 *155:113 23.7829 
17 *155:113 *155:121 40.8543 
18 *155:121 *538:A 23 
19 *155:113 *539:A 23 
*END

*D_NET *156 0.0159774
*CONN
*I *470:A I *D sky130_fd_sc_hd__inv_2
*I *551:A I *D sky130_fd_sc_hd__inv_2
*I *550:A I *D sky130_fd_sc_hd__inv_2
*I *533:A I *D sky130_fd_sc_hd__inv_2
*I *567:A I *D sky130_fd_sc_hd__inv_2
*I *556:A I *D sky130_fd_sc_hd__inv_2
*I *535:A I *D sky130_fd_sc_hd__inv_2
*I *534:A I *D sky130_fd_sc_hd__inv_2
*I *536:A I *D sky130_fd_sc_hd__inv_2
*I *537:A I *D sky130_fd_sc_hd__inv_2
*I *620:X O *D sky130_fd_sc_hd__buf_4
*CAP
1 *470:A 3.41697e-05
2 *551:A 7.22414e-05
3 *550:A 0
4 *533:A 0
5 *567:A 0.000132919
6 *556:A 0
7 *535:A 0
8 *534:A 9.99886e-05
9 *536:A 5.23614e-05
10 *537:A 9.82371e-05
11 *620:X 0
12 *156:115 0.00113039
13 *156:70 0.00108919
14 *156:58 0.00127419
15 *156:52 0.000793412
16 *156:44 0.000911777
17 *156:40 0.000403809
18 *156:34 0.00190142
19 *156:28 0.000975411
20 *156:10 0.000297657
21 *156:6 0.000378403
22 *156:44 *678:A 0.000185434
23 *156:52 *490:B 6.17437e-06
24 *156:70 *178:10 1.94418e-05
25 *156:115 *157:10 0
26 seg0[1] *156:34 0.00012641
27 seg0[2] *534:A 8.62876e-05
28 seg0[4] *156:70 0
29 *478:A2 *156:34 4.5882e-05
30 *568:CLK *156:52 9.84851e-05
31 *572:RESET_B *536:A 0.000130423
32 *572:RESET_B *537:A 0.000271476
33 *587:RESET_B *551:A 8.52481e-05
34 *587:RESET_B *156:115 0.000228909
35 *9:12 *534:A 0
36 *9:12 *156:70 5.72853e-05
37 *34:10 *470:A 6.17437e-06
38 *34:10 *156:34 5.41288e-05
39 *35:8 *156:34 7.24652e-05
40 *37:10 *156:70 0.000110913
41 *55:8 *156:115 0.000110922
42 *56:10 *156:115 0.000222113
43 *58:8 *156:52 0
44 *69:8 *567:A 5.56306e-05
45 *73:31 *567:A 2.93747e-05
46 *82:33 *156:115 0.00032696
47 *82:42 *156:115 7.80251e-05
48 *82:59 *156:115 0
49 *84:27 *156:58 0.000165593
50 *86:116 *156:52 9.39159e-05
51 *93:93 *156:58 0
52 *93:93 *156:70 0
53 *93:101 *156:70 0.000144029
54 *94:91 *156:58 0.00030233
55 *94:91 *156:70 0.000292867
56 *94:117 *567:A 9.74235e-05
57 *94:117 *156:52 1.22803e-05
58 *95:118 *156:34 0.000181799
59 *95:132 *156:44 0.000313249
60 *96:48 *156:34 0
61 *96:48 *156:52 6.51746e-05
62 *96:48 *156:58 0.000182832
63 *96:48 *156:115 0
64 *96:69 *156:115 0.000152639
65 *97:10 *156:52 7.88828e-05
66 *104:8 *156:34 6.50971e-05
67 *104:26 *156:34 8.25833e-05
68 *108:27 *537:A 5.67058e-05
69 *122:10 *156:115 4.06849e-05
70 *124:8 *156:115 0
71 *127:12 *156:44 0.000245523
72 *138:14 *156:10 8.68575e-05
73 *138:23 *156:10 1.44546e-05
74 *138:23 *156:28 8.26312e-05
75 *138:50 *156:28 5.36457e-05
76 *138:50 *156:34 0
77 *138:50 *156:115 0
78 *146:8 *156:52 0.000208217
79 *146:12 *156:52 0.00039509
80 *147:109 *156:58 5.97612e-05
81 *147:125 *156:70 7.16429e-05
82 *147:176 *156:52 0
83 *148:20 *156:70 0.000373081
84 *149:14 *156:28 4.6318e-06
85 *150:15 *156:52 0
86 *150:21 *156:52 0
*RES
1 *620:X *156:6 38 
2 *156:6 *156:10 18.6664 
3 *156:10 *537:A 26.0036 
4 *156:10 *536:A 24.5743 
5 *156:6 *156:28 20.4271 
6 *156:28 *156:34 30.0696 
7 *156:34 *156:40 16.4189 
8 *156:40 *156:44 22.2914 
9 *156:44 *156:52 26.6207 
10 *156:52 *156:58 22.83 
11 *156:58 *156:70 49.3264 
12 *156:70 *534:A 39.9057 
13 *156:58 *535:A 38 
14 *156:52 *556:A 23 
15 *156:44 *567:A 41.2314 
16 *156:40 *533:A 23 
17 *156:34 *156:115 37.4854 
18 *156:115 *550:A 23 
19 *156:115 *551:A 24.5743 
20 *156:28 *470:A 23.6214 
*END

*D_NET *157 0.0143878
*CONN
*I *560:A I *D sky130_fd_sc_hd__inv_2
*I *552:A I *D sky130_fd_sc_hd__inv_2
*I *565:A I *D sky130_fd_sc_hd__inv_2
*I *566:A I *D sky130_fd_sc_hd__inv_2
*I *561:A I *D sky130_fd_sc_hd__inv_2
*I *553:A I *D sky130_fd_sc_hd__inv_2
*I *555:A I *D sky130_fd_sc_hd__inv_2
*I *554:A I *D sky130_fd_sc_hd__inv_2
*I *621:X O *D sky130_fd_sc_hd__clkbuf_4
*CAP
1 *560:A 8.51478e-05
2 *552:A 0.000465401
3 *565:A 0
4 *566:A 0.000161994
5 *561:A 0
6 *553:A 0
7 *555:A 0
8 *554:A 0.000107631
9 *621:X 0
10 *157:90 0.000951626
11 *157:81 0.000183377
12 *157:59 0.000478112
13 *157:47 0.000833929
14 *157:45 0.000469315
15 *157:43 0.000915805
16 *157:34 0.000579043
17 *157:25 0.000394986
18 *157:10 0.000773547
19 *157:4 0.00042736
20 *552:A *188:10 5.70419e-05
21 *554:A *165:10 3.7122e-06
22 *560:A *162:10 0.000141052
23 *566:A *472:A1 0
24 *157:25 *165:10 1.21972e-05
25 *157:47 *472:A1 0.000228909
26 *157:59 *596:D 6.96749e-05
27 *157:59 *185:12 0.000263165
28 *157:59 *215:10 1.02387e-05
29 *157:90 *587:D 0
30 *157:90 *162:10 0.000398645
31 *157:90 *213:10 6.6869e-05
32 seg3[4] *157:25 7.46212e-05
33 *472:A2 *566:A 1.14154e-05
34 *472:B1 *157:47 0.000141954
35 *476:A1_N *566:A 0.000119556
36 *476:A1_N *157:59 4.23492e-05
37 *476:A2_N *566:A 5.3304e-05
38 *476:A2_N *157:47 5.61255e-06
39 *476:B2 *157:47 0.000400193
40 *522:A2 *157:90 0
41 *527:B1 *157:43 0.000484539
42 *529:B1 *554:A 0.000223698
43 *529:B1 *157:25 0.000135037
44 *596:CLK *157:59 4.00259e-06
45 *616:A *157:81 0.000160182
46 *617:A *157:81 0.000247687
47 *622:A *157:43 5.50106e-05
48 *642:A *552:A 5.61414e-05
49 *650:A *157:25 8.43466e-05
50 *3:11 *157:25 3.8737e-05
51 *56:10 *554:A 2.64616e-05
52 *57:10 *157:25 6.88819e-05
53 *63:8 *157:59 0.00019654
54 *68:10 *566:A 1.24376e-05
55 *82:33 *157:10 0.000131159
56 *82:42 *157:10 8.26569e-05
57 *82:66 *157:90 0
58 *88:14 *157:90 0.0002499
59 *88:78 *157:90 0.000155077
60 *88:105 *157:59 0.00010018
61 *91:32 *157:81 1.12487e-05
62 *91:51 *552:A 6.78463e-05
63 *91:51 *560:A 1.02561e-05
64 *91:51 *157:90 5.92152e-05
65 *92:12 *552:A 1.95903e-05
66 *92:12 *157:90 5.11935e-06
67 *92:20 *560:A 0.000139357
68 *93:93 *157:81 2.47097e-05
69 *101:25 *157:59 4.58924e-05
70 *125:8 *157:25 8.51329e-05
71 *138:50 *157:10 0.000558185
72 *151:23 *157:45 4.08664e-05
73 *151:23 *157:47 0.000181125
74 *151:27 *157:81 0.000456486
75 *151:69 *157:43 0.000101567
76 *151:69 *157:45 0.000354122
77 *151:79 *552:A 0
78 *153:13 *157:47 4.2573e-05
79 *153:28 *157:43 0.000262858
80 *153:28 *157:45 0.000395901
81 *153:28 *157:47 8.52481e-05
82 *155:100 *157:59 0
83 *155:113 *157:59 0
84 *156:115 *157:10 0
*RES
1 *621:X *157:4 23 
2 *157:4 *157:10 37.54 
3 *157:10 *554:A 25.5271 
4 *157:10 *157:25 38.3064 
5 *157:25 *555:A 23 
6 *157:4 *157:34 2.9 
7 *157:34 *553:A 23 
8 *157:34 *157:43 10.0464 
9 *157:43 *157:45 4.43286 
10 *157:45 *157:47 7.29143 
11 *157:47 *157:59 41.0614 
12 *157:59 *561:A 23 
13 *157:47 *566:A 26.7493 
14 *157:45 *157:81 36.4836 
15 *157:81 *565:A 23 
16 *157:43 *157:90 25.5332 
17 *157:90 *552:A 47.3525 
18 *157:90 *560:A 40.5168 
*END

*D_NET *158 0.00105995
*CONN
*I *678:A I *D sky130_fd_sc_hd__buf_2
*I *479:X O *D sky130_fd_sc_hd__a31o_1
*CAP
1 *678:A 5.18741e-05
2 *479:X 0.000114896
3 *158:8 0.000166771
4 *95:132 *678:A 6.38926e-05
5 *96:48 *158:8 0.000184825
6 *127:12 *678:A 0.000228909
7 *148:106 *158:8 6.33511e-05
8 *156:44 *678:A 0.000185434
*RES
1 *479:X *158:8 40.61 
2 *158:8 *678:A 41.0243 
*END

*D_NET *159 0.00117677
*CONN
*I *528:B1 I *D sky130_fd_sc_hd__a21o_1
*I *622:X O *D sky130_fd_sc_hd__dlygate4sd3_1
*CAP
1 *528:B1 0
2 *622:X 0.000405033
3 *159:12 0.000405033
4 *159:12 *216:10 0
5 *527:B1 *159:12 0.000114846
6 *82:8 *159:12 0
7 *82:66 *159:12 0
8 *151:69 *159:12 5.67058e-05
9 *153:36 *159:12 0.000195157
*RES
1 *622:X *159:12 46.5757 
2 *159:12 *528:B1 38 
*END

*D_NET *160 0.000488364
*CONN
*I *532:B1 I *D sky130_fd_sc_hd__a21o_1
*I *633:X O *D sky130_fd_sc_hd__dlygate4sd3_1
*CAP
1 *532:B1 0.000146769
2 *633:X 0.000146769
3 *532:A2 *532:B1 5.50049e-05
4 *589:RESET_B *532:B1 5.67058e-05
5 *82:59 *532:B1 5.50106e-05
6 *96:69 *532:B1 2.81041e-05
*RES
1 *633:X *532:B1 49.1693 
*END

*D_NET *161 0.000668353
*CONN
*I *524:B1 I *D sky130_fd_sc_hd__a21o_1
*I *644:X O *D sky130_fd_sc_hd__dlygate4sd3_1
*CAP
1 *524:B1 0
2 *644:X 0.000245393
3 *161:10 0.000245393
4 *523:B1 *161:10 3.884e-05
5 *82:59 *161:10 0.000138727
*RES
1 *644:X *161:10 41.9564 
2 *161:10 *524:B1 38 
*END

*D_NET *162 0.00220435
*CONN
*I *522:B1 I *D sky130_fd_sc_hd__a21o_1
*I *647:X O *D sky130_fd_sc_hd__dlygate4sd3_1
*CAP
1 *522:B1 1.08768e-05
2 *647:X 0.00035816
3 *162:10 0.000369037
4 *162:10 *164:8 0
5 *162:10 *214:8 0.000180218
6 *522:A2 *162:10 2.76611e-06
7 *525:A1 *522:B1 5.67058e-05
8 *560:A *162:10 0.000141052
9 *649:A *162:10 2.64616e-05
10 *62:10 *162:10 0.000289806
11 *88:80 *522:B1 5.50049e-05
12 *92:8 *162:10 2.5343e-05
13 *92:12 *162:10 3.71611e-05
14 *92:20 *162:10 0.000100488
15 *92:53 *162:10 0.000152625
16 *157:90 *162:10 0.000398645
*RES
1 *647:X *162:10 47.86 
2 *162:10 *522:B1 38.6214 
*END

*D_NET *163 0.00081161
*CONN
*I *472:A1 I *D sky130_fd_sc_hd__a21o_1
*I *648:X O *D sky130_fd_sc_hd__dlygate4sd3_1
*CAP
1 *472:A1 6.885e-05
2 *648:X 8.51417e-05
3 *163:8 0.000153992
4 *472:A2 *472:A1 0.000113508
5 *472:B1 *472:A1 2.02517e-05
6 *566:A *472:A1 0
7 *615:A *163:8 0.000140958
8 *151:10 *163:8 0
9 *157:47 *472:A1 0.000228909
*RES
1 *648:X *163:8 39.9057 
2 *163:8 *472:A1 41.0243 
*END

*D_NET *164 0.00198016
*CONN
*I *526:B1 I *D sky130_fd_sc_hd__a21o_1
*I *649:X O *D sky130_fd_sc_hd__dlygate4sd3_1
*CAP
1 *526:B1 0.000199408
2 *649:X 0.000311737
3 *164:8 0.000511145
4 *522:A2 *164:8 8.82524e-05
5 *526:A2 *526:B1 0.0002246
6 *608:A *526:B1 6.82416e-05
7 *82:66 *164:8 1.58805e-05
8 *91:32 *164:8 0.000164282
9 *91:51 *164:8 0.00021356
10 *92:12 *164:8 5.66938e-05
11 *92:53 *164:8 0
12 *123:12 *164:8 7.1357e-05
13 *151:10 *526:B1 5.50049e-05
14 *162:10 *164:8 0
*RES
1 *649:X *164:8 45.8921 
2 *164:8 *526:B1 42.4536 
*END

*D_NET *165 0.00103481
*CONN
*I *530:B1 I *D sky130_fd_sc_hd__a21o_1
*I *650:X O *D sky130_fd_sc_hd__dlygate4sd3_1
*CAP
1 *530:B1 0
2 *650:X 0.000184052
3 *165:10 0.000184052
4 *554:A *165:10 3.7122e-06
5 *57:10 *165:10 0.000299178
6 *138:50 *165:10 0.000351617
7 *157:25 *165:10 1.21972e-05
*RES
1 *650:X *165:10 43.3443 
2 *165:10 *530:B1 38 
*END

*D_NET *166 0.000960376
*CONN
*I *480:B1 I *D sky130_fd_sc_hd__a21o_1
*I *651:X O *D sky130_fd_sc_hd__dlygate4sd3_1
*CAP
1 *480:B1 0
2 *651:X 0.00024686
3 *166:16 0.00024686
4 *166:16 *196:10 5.50106e-05
5 *477:A2 *166:16 8.69683e-05
6 *92:138 *166:16 0.000246774
7 *104:26 *166:16 4.20667e-05
8 *147:176 *166:16 1.21972e-05
9 *148:91 *166:16 2.36392e-05
*RES
1 *651:X *166:16 29.4421 
2 *166:16 *480:B1 23 
*END

*D_NET *167 0.000159073
*CONN
*I *679:A I *D sky130_fd_sc_hd__buf_2
*I *481:X O *D sky130_fd_sc_hd__a31o_1
*CAP
1 *679:A 3.30383e-05
2 *481:X 3.30383e-05
3 *481:A2 *679:A 0
4 *147:125 *679:A 3.22879e-05
5 *148:20 *679:A 6.07084e-05
*RES
1 *481:X *679:A 47.1186 
*END

*D_NET *168 0.000233179
*CONN
*I *494:B1 I *D sky130_fd_sc_hd__a21o_1
*I *652:X O *D sky130_fd_sc_hd__dlygate4sd3_1
*CAP
1 *494:B1 5.04049e-05
2 *652:X 5.04049e-05
3 *494:B1 *202:8 5.73288e-05
4 *494:A1 *494:B1 7.50407e-05
*RES
1 *652:X *494:B1 47.5743 
*END

*D_NET *169 0.000588131
*CONN
*I *486:B1 I *D sky130_fd_sc_hd__a21o_1
*I *623:X O *D sky130_fd_sc_hd__dlygate4sd3_1
*CAP
1 *486:B1 1.97948e-05
2 *623:X 0.000172762
3 *169:10 0.000192557
4 *478:A2 *169:10 1.58805e-05
5 *486:A2 *486:B1 5.50049e-05
6 *488:A2 *169:10 5.56203e-05
7 *95:105 *169:10 5.70419e-05
8 *95:118 *169:10 0
9 *138:31 *486:B1 1.94693e-05
*RES
1 *623:X *169:10 41.0036 
2 *169:10 *486:B1 38.6214 
*END

*D_NET *170 0.000859146
*CONN
*I *509:B1 I *D sky130_fd_sc_hd__a21o_1
*I *624:X O *D sky130_fd_sc_hd__dlygate4sd3_1
*CAP
1 *509:B1 0
2 *624:X 0.000252223
3 *170:10 0.000252223
4 *581:RESET_B *170:10 1.16434e-05
5 *624:A *170:10 5.56356e-05
6 *85:33 *170:10 1.46784e-05
7 *116:18 *170:10 0
8 *147:14 *170:10 0
9 *154:35 *170:10 8.15864e-05
10 *154:47 *170:10 0.000191157
*RES
1 *624:X *170:10 43.1371 
2 *170:10 *509:B1 38 
*END

*D_NET *171 0.000969114
*CONN
*I *502:B1 I *D sky130_fd_sc_hd__a21o_1
*I *625:X O *D sky130_fd_sc_hd__dlygate4sd3_1
*CAP
1 *502:B1 0.000213355
2 *625:X 5.38811e-05
3 *171:8 0.000267236
4 *4:15 *171:8 0.000114092
5 *74:12 *502:B1 0.000184527
6 *74:18 *502:B1 7.17741e-05
7 *74:33 *502:B1 1.11037e-05
8 *96:87 *171:8 5.31444e-05
*RES
1 *625:X *171:8 39.5536 
2 *171:8 *502:B1 41.9771 
*END

*D_NET *172 0.00106576
*CONN
*I *507:B1 I *D sky130_fd_sc_hd__a21o_1
*I *626:X O *D sky130_fd_sc_hd__dlygate4sd3_1
*CAP
1 *507:B1 0.000181187
2 *626:X 8.3559e-05
3 *172:8 0.000264746
4 *508:A2 *172:8 9.28078e-06
5 *80:55 *507:B1 0.000180218
6 *80:74 *507:B1 0.00011222
7 *94:37 *172:8 0.000161898
8 *147:14 *172:8 7.26495e-05
*RES
1 *626:X *172:8 40.2579 
2 *172:8 *507:B1 41.9771 
*END

*D_NET *173 0.000263923
*CONN
*I *500:B1 I *D sky130_fd_sc_hd__a21o_1
*I *627:X O *D sky130_fd_sc_hd__dlygate4sd3_1
*CAP
1 *500:B1 0
2 *627:X 8.84153e-05
3 *173:8 8.84153e-05
4 *173:8 *205:8 3.76761e-05
5 *173:8 *206:10 4.334e-05
6 *500:A1 *173:8 6.07611e-06
7 *72:53 *173:8 0
*RES
1 *627:X *173:8 39.9057 
2 *173:8 *500:B1 38 
*END

*D_NET *174 0.00117047
*CONN
*I *496:B1 I *D sky130_fd_sc_hd__a21o_1
*I *628:X O *D sky130_fd_sc_hd__dlygate4sd3_1
*CAP
1 *496:B1 0
2 *628:X 0.000161745
3 *174:8 0.000161745
4 *496:A1 *174:8 0.000105087
5 *540:A *174:8 0
6 *628:A *174:8 0.000141052
7 *93:33 *174:8 4.10228e-05
8 *129:8 *174:8 3.53115e-05
9 *155:71 *174:8 0.00052451
*RES
1 *628:X *174:8 29.3593 
2 *174:8 *496:B1 23 
*END

*D_NET *175 0.000830017
*CONN
*I *511:B1 I *D sky130_fd_sc_hd__a21o_1
*I *629:X O *D sky130_fd_sc_hd__dlygate4sd3_1
*CAP
1 *511:B1 0
2 *629:X 0.000238928
3 *175:10 0.000238928
4 *510:A2 *175:10 9.84794e-05
5 *93:55 *175:10 5.30949e-05
6 *99:14 *175:10 2.05503e-05
7 *135:8 *175:10 7.75329e-06
8 *147:69 *175:10 9.67842e-05
9 *147:90 *175:10 7.54991e-05
*RES
1 *629:X *175:10 42.3086 
2 *175:10 *511:B1 38 
*END

*D_NET *176 0.00123828
*CONN
*I *515:B1 I *D sky130_fd_sc_hd__a21o_1
*I *630:X O *D sky130_fd_sc_hd__dlygate4sd3_1
*CAP
1 *515:B1 0.000122441
2 *630:X 8.59892e-05
3 *176:8 0.00020843
4 *176:8 *518:D 8.4047e-05
5 *176:8 *585:D 5.94125e-05
6 *176:8 *183:10 5.84798e-05
7 *515:A2 *515:B1 0.000118741
8 *72:10 *515:B1 0.000356246
9 *154:78 *515:B1 0.000144494
*RES
1 *630:X *176:8 39.9057 
2 *176:8 *515:B1 42.4536 
*END

*D_NET *177 0.000619704
*CONN
*I *492:B1 I *D sky130_fd_sc_hd__a21o_1
*I *631:X O *D sky130_fd_sc_hd__dlygate4sd3_1
*CAP
1 *492:B1 0
2 *631:X 0.000223704
3 *177:8 0.000223704
4 *74:73 *177:8 8.37775e-05
5 *109:8 *177:8 8.85189e-05
*RES
1 *631:X *177:8 42.7229 
2 *177:8 *492:B1 38 
*END

*D_NET *178 0.000690278
*CONN
*I *680:A I *D sky130_fd_sc_hd__buf_2
*I *483:X O *D sky130_fd_sc_hd__a31o_1
*CAP
1 *680:A 0
2 *483:X 0.00021972
3 *178:10 0.00021972
4 seg0[4] *178:10 6.70363e-05
5 *570:CLK *178:10 2.63049e-05
6 *94:91 *178:10 2.93747e-05
7 *147:125 *178:10 0.000108681
8 *148:49 *178:10 0
9 *156:70 *178:10 1.94418e-05
*RES
1 *483:X *178:10 41.8321 
2 *178:10 *680:A 38 
*END

*D_NET *179 0.000551398
*CONN
*I *513:B1 I *D sky130_fd_sc_hd__a21o_1
*I *632:X O *D sky130_fd_sc_hd__dlygate4sd3_1
*CAP
1 *513:B1 4.15138e-05
2 *632:X 9.90384e-05
3 *179:8 0.000140552
4 *513:B1 *210:6 3.7122e-06
5 *179:8 *518:D 0.000166513
6 *94:20 *513:B1 0.000100069
*RES
1 *632:X *179:8 40.2579 
2 *179:8 *513:B1 39.0979 
*END

*D_NET *180 0.00029044
*CONN
*I *484:B1 I *D sky130_fd_sc_hd__a21o_1
*I *634:X O *D sky130_fd_sc_hd__dlygate4sd3_1
*CAP
1 *484:B1 3.60242e-05
2 *634:X 3.60242e-05
3 *484:A1 *484:B1 0.000141052
4 *146:25 *484:B1 7.73389e-05
*RES
1 *634:X *484:B1 47.5743 
*END

*D_NET *181 0.000659315
*CONN
*I *478:B1 I *D sky130_fd_sc_hd__a21o_1
*I *635:X O *D sky130_fd_sc_hd__dlygate4sd3_1
*CAP
1 *478:B1 0
2 *635:X 0.000204468
3 *181:10 0.000204468
4 *6:8 *181:10 8.16253e-05
5 *149:14 *181:10 0.000168754
*RES
1 *635:X *181:10 41.8321 
2 *181:10 *478:B1 38 
*END

*D_NET *182 0.000917355
*CONN
*I *498:B1 I *D sky130_fd_sc_hd__a21o_1
*I *636:X O *D sky130_fd_sc_hd__dlygate4sd3_1
*CAP
1 *498:B1 0
2 *636:X 0.000287453
3 *182:8 0.000287453
4 *182:8 *503:A 5.50049e-05
5 *182:8 *503:B 0.000114846
6 *182:8 *503:D 0.000141052
7 *182:8 *205:35 2.22973e-05
8 *94:49 *182:8 9.24795e-06
*RES
1 *636:X *182:8 28.8829 
2 *182:8 *498:B1 23 
*END

*D_NET *183 0.000923155
*CONN
*I *517:B1 I *D sky130_fd_sc_hd__a21o_1
*I *637:X O *D sky130_fd_sc_hd__dlygate4sd3_1
*CAP
1 *517:B1 0
2 *637:X 0.000360311
3 *183:10 0.000360311
4 *183:10 *585:D 6.71306e-06
5 *585:CLK *183:10 1.67271e-05
6 *630:A *183:10 9.61399e-05
7 *85:117 *183:10 2.44742e-05
8 *176:8 *183:10 5.84798e-05
*RES
1 *637:X *183:10 43.2614 
2 *183:10 *517:B1 38 
*END

*D_NET *184 0.000500897
*CONN
*I *488:B1 I *D sky130_fd_sc_hd__a21o_1
*I *638:X O *D sky130_fd_sc_hd__dlygate4sd3_1
*CAP
1 *488:B1 0
2 *638:X 0.000183395
3 *184:10 0.000183395
4 *572:RESET_B *184:10 9.84851e-05
5 *654:A *184:10 0
6 *96:129 *184:10 6.07611e-06
7 *108:27 *184:10 0
8 *138:14 *184:10 2.95461e-05
*RES
1 *638:X *184:10 41.0036 
2 *184:10 *488:B1 38 
*END

*D_NET *185 0.00276255
*CONN
*I *596:D I *D sky130_fd_sc_hd__dfrtp_4
*I *639:X O *D sky130_fd_sc_hd__dlygate4sd3_1
*CAP
1 *596:D 0.000235926
2 *639:X 0.000310012
3 *185:12 0.000545937
4 *596:D *215:10 0.000312146
5 *185:12 *215:10 7.37814e-06
6 *601:CLK *185:12 6.17437e-06
7 *601:D *185:12 5.61255e-06
8 *63:8 *596:D 0.00019654
9 *68:10 *185:12 1.99391e-05
10 *70:8 *185:12 0.000114092
11 *84:36 *185:12 0.000534508
12 *88:97 *596:D 5.10805e-05
13 *88:105 *596:D 2.18409e-05
14 *155:46 *185:12 6.85264e-05
15 *155:100 *185:12 0
16 *157:59 *596:D 6.96749e-05
17 *157:59 *185:12 0.000263165
*RES
1 *639:X *185:12 46.9589 
2 *185:12 *596:D 44.7425 
*END

*D_NET *186 0.000636904
*CONN
*I *482:B1 I *D sky130_fd_sc_hd__a21o_1
*I *640:X O *D sky130_fd_sc_hd__dlygate4sd3_1
*CAP
1 *482:B1 0
2 *640:X 0.000233508
3 *186:8 0.000233508
4 *563:A *186:8 0
5 *93:101 *186:8 0.000169888
*RES
1 *640:X *186:8 42.7229 
2 *186:8 *482:B1 38 
*END

*D_NET *187 0.000499155
*CONN
*I *599:D I *D sky130_fd_sc_hd__dfrtp_4
*I *641:X O *D sky130_fd_sc_hd__dlygate4sd3_1
*CAP
1 *599:D 0
2 *641:X 0.000101326
3 *187:10 0.000101326
4 *72:30 *187:10 0.000141869
5 *80:20 *187:10 0.00014411
6 *94:12 *187:10 1.05235e-05
*RES
1 *641:X *187:10 40.5271 
2 *187:10 *599:D 38 
*END

*D_NET *188 0.00145594
*CONN
*I *597:D I *D sky130_fd_sc_hd__dfrtp_4
*I *642:X O *D sky130_fd_sc_hd__dlygate4sd3_1
*CAP
1 *597:D 0
2 *642:X 0.000609749
3 *188:10 0.000609749
4 *188:10 *215:10 0
5 *552:A *188:10 5.70419e-05
6 *88:93 *188:10 0
7 *88:105 *188:10 0
8 *142:10 *188:10 0.000179403
*RES
1 *642:X *188:10 49.8486 
2 *188:10 *597:D 38 
*END

*D_NET *189 0.00152318
*CONN
*I *681:A I *D sky130_fd_sc_hd__buf_2
*I *485:X O *D sky130_fd_sc_hd__a31o_1
*CAP
1 *681:A 3.10662e-05
2 *485:X 0.000369321
3 *189:10 0.000400387
4 *189:10 *200:18 0.00019266
5 seg0[4] *189:10 0
6 *483:B1 *189:10 0.000189173
7 *11:8 *681:A 6.17437e-06
8 *78:14 *189:10 5.50049e-05
9 *95:94 *189:10 4.50607e-05
10 *96:117 *189:10 0
11 *108:14 *189:10 6.93449e-05
12 *147:125 *189:10 0
13 *148:49 *681:A 2.53297e-05
14 *148:49 *189:10 0.000139657
15 *148:62 *189:10 0
*RES
1 *485:X *189:10 47.4664 
2 *189:10 *681:A 38.6214 
*END

*D_NET *190 0.000948015
*CONN
*I *600:D I *D sky130_fd_sc_hd__dfrtp_4
*I *643:X O *D sky130_fd_sc_hd__dlygate4sd3_1
*CAP
1 *600:D 0
2 *643:X 0.000404653
3 *190:10 0.000404653
4 *637:A *190:10 0
5 *96:32 *190:10 0.000138708
*RES
1 *643:X *190:10 43.8621 
2 *190:10 *600:D 38 
*END

*D_NET *191 0.00186795
*CONN
*I *595:D I *D sky130_fd_sc_hd__dfstp_2
*I *645:X O *D sky130_fd_sc_hd__dlygate4sd3_1
*CAP
1 *595:D 0
2 *645:X 0.00045432
3 *191:10 0.00045432
4 *605:A *191:10 0.000247714
5 *72:30 *191:10 0.000347237
6 *80:12 *191:10 1.01436e-05
7 *80:14 *191:10 0.000136486
8 *80:16 *191:10 0.000217734
*RES
1 *645:X *191:10 47.6321 
2 *191:10 *595:D 38 
*END

*D_NET *192 0.00261732
*CONN
*I *598:D I *D sky130_fd_sc_hd__dfrtp_4
*I *646:X O *D sky130_fd_sc_hd__dlygate4sd3_1
*CAP
1 *598:D 0
2 *646:X 0.00011436
3 *192:12 0.000758861
4 *192:8 0.000873221
5 *603:CLK *192:12 0.000249862
6 *74:12 *192:8 9.6103e-05
7 *86:65 *192:12 2.22079e-05
8 *91:20 *192:12 1.6374e-05
9 *92:80 *192:12 0
10 *93:20 *192:8 5.67058e-05
11 *154:29 *192:12 0.000429621
*RES
1 *646:X *192:8 40.5271 
2 *192:8 *192:12 31.6957 
3 *192:12 *598:D 23 
*END

*D_NET *193 0.000125104
*CONN
*I *682:A I *D sky130_fd_sc_hd__buf_2
*I *487:X O *D sky130_fd_sc_hd__a31o_1
*CAP
1 *682:A 4.4407e-05
2 *487:X 4.4407e-05
3 *487:A1 *682:A 0
4 *96:129 *682:A 3.62905e-05
*RES
1 *487:X *682:A 47.1186 
*END

*D_NET *194 0.00140859
*CONN
*I *683:A I *D sky130_fd_sc_hd__buf_2
*I *491:X O *D sky130_fd_sc_hd__a31o_1
*CAP
1 *683:A 0
2 *491:X 0.000668224
3 *194:10 0.000668224
4 *74:67 *194:10 5.27215e-06
5 *87:47 *194:10 6.6869e-05
*RES
1 *491:X *194:10 47.5493 
2 *194:10 *683:A 38 
*END

*D_NET *195 0.00196467
*CONN
*I *568:D I *D sky130_fd_sc_hd__dfrtp_1
*I *490:A I *D sky130_fd_sc_hd__and3_1
*I *478:X O *D sky130_fd_sc_hd__a21o_1
*CAP
1 *568:D 0
2 *490:A 0
3 *478:X 0.000590876
4 *195:14 9.41933e-05
5 *195:6 0.000685069
6 *478:A2 *195:6 9.77397e-05
7 *568:CLK *195:14 2.93845e-05
8 *568:RESET_B *195:6 6.61823e-05
9 *73:33 *195:14 6.25829e-05
10 *96:48 *195:6 6.16164e-05
11 *96:48 *195:14 0.000182832
12 *103:10 *195:6 2.93845e-05
13 *148:75 *195:14 6.48142e-05
*RES
1 *478:X *195:6 33.6264 
2 *195:6 *195:14 32.9 
3 *195:14 *490:A 23 
4 *195:6 *568:D 23 
*END

*D_NET *196 0.00126829
*CONN
*I *569:D I *D sky130_fd_sc_hd__dfrtp_1
*I *490:B I *D sky130_fd_sc_hd__and3_1
*I *480:X O *D sky130_fd_sc_hd__a21o_1
*CAP
1 *569:D 0
2 *490:B 0.000193603
3 *480:X 0.000104787
4 *196:10 0.00029839
5 *568:CLK *490:B 6.00553e-05
6 *94:117 *490:B 0.00019747
7 *94:117 *196:10 0.000150432
8 *147:176 *196:10 2.93845e-05
9 *148:75 *490:B 9.98891e-05
10 *148:75 *196:10 7.30972e-05
11 *156:52 *490:B 6.17437e-06
12 *166:16 *196:10 5.50106e-05
*RES
1 *480:X *196:10 40.8793 
2 *196:10 *490:B 42.1843 
3 *196:10 *569:D 38 
*END

*D_NET *197 0.00347618
*CONN
*I *489:A I *D sky130_fd_sc_hd__and4_1
*I *570:D I *D sky130_fd_sc_hd__dfrtp_1
*I *482:X O *D sky130_fd_sc_hd__a21o_1
*CAP
1 *489:A 2.84143e-05
2 *570:D 0.000480718
3 *482:X 0.000429901
4 *197:10 0.000939033
5 *489:A *489:B 4.17736e-05
6 *489:A *571:D 5.50106e-05
7 *570:D *199:24 0.000105165
8 *197:10 *198:10 0.000169683
9 *197:10 *199:24 1.12487e-05
10 *482:A2 *197:10 8.76721e-05
11 *570:CLK *570:D 0.000261956
12 *634:A *197:10 0
13 *37:10 *197:10 5.3304e-05
14 *86:16 *197:10 5.3304e-05
15 *86:20 *197:10 0.000111852
16 *86:26 *570:D 0.000166522
17 *86:26 *197:10 0.000105799
18 *86:39 *570:D 3.71198e-05
19 *95:94 *489:A 9.67842e-05
20 *138:31 *197:10 9.54065e-05
21 *147:109 *570:D 3.36638e-05
22 *148:33 *570:D 0.000111852
*RES
1 *482:X *197:10 46.8243 
2 *197:10 *570:D 47.1557 
3 *197:10 *489:A 39.0979 
*END

*D_NET *198 0.00298161
*CONN
*I *489:B I *D sky130_fd_sc_hd__and4_1
*I *571:D I *D sky130_fd_sc_hd__dfrtp_1
*I *484:X O *D sky130_fd_sc_hd__a21o_1
*CAP
1 *489:B 7.50916e-05
2 *571:D 0.00027645
3 *484:X 0.000445133
4 *198:12 0.000351542
5 *198:10 0.000445133
6 *489:B *199:24 5.12254e-05
7 *198:10 *199:24 6.48142e-05
8 *482:A2 *198:10 2.94414e-05
9 *483:B1 *198:10 7.75329e-06
10 *484:A1 *198:10 0.0002263
11 *489:A *489:B 4.17736e-05
12 *489:A *571:D 5.50106e-05
13 *634:A *198:10 2.01531e-05
14 *86:16 *198:10 5.41385e-05
15 *86:59 *571:D 0.000221737
16 *95:94 *489:B 7.80839e-05
17 *95:94 *571:D 0.000342985
18 *106:8 *489:B 1.21972e-05
19 *106:8 *571:D 3.7122e-06
20 *146:25 *198:10 9.24795e-06
21 *197:10 *198:10 0.000169683
*RES
1 *484:X *198:10 45.6436 
2 *198:10 *198:12 15 
3 *198:12 *571:D 30.7679 
4 *198:12 *489:B 25.0714 
*END

*D_NET *199 0.00244004
*CONN
*I *489:C I *D sky130_fd_sc_hd__and4_1
*I *572:D I *D sky130_fd_sc_hd__dfrtp_1
*I *486:X O *D sky130_fd_sc_hd__a21o_1
*CAP
1 *489:C 0
2 *572:D 0
3 *486:X 6.30464e-05
4 *199:24 0.000250092
5 *199:12 0.000672735
6 *199:8 0.00048569
7 *199:12 *200:18 5.41288e-05
8 *483:B1 *199:24 0.000111781
9 *488:A2 *199:8 8.62876e-05
10 *489:B *199:24 5.12254e-05
11 *570:D *199:24 0.000105165
12 *86:39 *199:24 8.90445e-05
13 *95:94 *199:12 5.08704e-05
14 *95:94 *199:24 1.5769e-05
15 *95:105 *199:12 0.000176355
16 *96:117 *199:24 5.50049e-05
17 *106:8 *199:24 9.67842e-05
18 *197:10 *199:24 1.12487e-05
19 *198:10 *199:24 6.48142e-05
*RES
1 *486:X *199:8 39.2014 
2 *199:8 *199:12 21.3386 
3 *199:12 *199:24 36.7114 
4 *199:24 *572:D 23 
5 *199:12 *489:C 23 
*END

*D_NET *200 0.00266857
*CONN
*I *573:D I *D sky130_fd_sc_hd__dfrtp_1
*I *489:D I *D sky130_fd_sc_hd__and4_1
*I *488:X O *D sky130_fd_sc_hd__a21o_1
*CAP
1 *573:D 0
2 *489:D 0
3 *488:X 0.000487844
4 *200:18 0.000218675
5 *200:10 0.000706518
6 *483:B1 *200:18 0
7 *488:A2 *200:10 7.78996e-05
8 *573:RESET_B *200:10 2.03425e-05
9 *78:14 *200:18 3.78189e-05
10 *95:94 *200:18 9.84794e-05
11 *108:6 *200:10 0.000185434
12 *108:14 *200:10 0.000311005
13 *138:14 *200:10 5.38249e-05
14 *148:62 *200:18 0.000201443
15 *148:75 *200:18 2.24973e-05
16 *189:10 *200:18 0.00019266
17 *199:12 *200:18 5.41288e-05
*RES
1 *488:X *200:10 34.745 
2 *200:10 *200:18 37.2293 
3 *200:18 *489:D 23 
4 *200:10 *573:D 23 
*END

*D_NET *201 0.00583679
*CONN
*I *504:A I *D sky130_fd_sc_hd__and3_1
*I *574:D I *D sky130_fd_sc_hd__dfrtp_1
*I *492:X O *D sky130_fd_sc_hd__a21o_1
*CAP
1 *504:A 0
2 *574:D 0
3 *492:X 0
4 *201:23 0.000976075
5 *201:12 0.000657064
6 *201:4 0.00163314
7 *201:23 *504:B 0.000730542
8 *201:23 *575:D 0.000250839
9 *492:A1 *201:12 9.5877e-05
10 *4:15 *201:23 0.000225926
11 *79:14 *201:23 4.85126e-05
12 *92:61 *201:23 5.68312e-05
13 *92:65 *201:23 0.000209385
14 *110:8 *201:23 0.00014411
15 *114:10 *201:23 0.000138727
16 *128:12 *201:23 8.92944e-05
17 *155:113 *201:23 0
18 *155:121 *201:23 0.000580468
*RES
1 *492:X *201:4 23 
2 *201:4 *201:12 41.1029 
3 *201:12 *574:D 23 
4 *201:4 *201:23 39.8157 
5 *201:23 *504:A 38 
*END

*D_NET *202 0.00396129
*CONN
*I *575:D I *D sky130_fd_sc_hd__dfrtp_1
*I *504:B I *D sky130_fd_sc_hd__and3_1
*I *494:X O *D sky130_fd_sc_hd__a21o_1
*CAP
1 *575:D 0.000454322
2 *504:B 0.000445927
3 *494:X 7.21823e-05
4 *202:8 0.000972431
5 *494:A1 *202:8 0.000183443
6 *494:B1 *202:8 5.73288e-05
7 *574:RESET_B *575:D 3.22051e-05
8 *575:RESET_B *575:D 2.33744e-05
9 *79:14 *504:B 8.4047e-05
10 *128:12 *504:B 0.000108681
11 *128:12 *575:D 0.000240695
12 *148:136 *504:B 0.000250262
13 *152:24 *504:B 5.50106e-05
14 *201:23 *504:B 0.000730542
15 *201:23 *575:D 0.000250839
*RES
1 *494:X *202:8 40.0507 
2 *202:8 *504:B 48.6264 
3 *202:8 *575:D 48.1293 
*END

*D_NET *203 0.00127423
*CONN
*I *576:D I *D sky130_fd_sc_hd__dfrtp_1
*I *503:A I *D sky130_fd_sc_hd__and4_1
*I *496:X O *D sky130_fd_sc_hd__a21o_1
*CAP
1 *576:D 0.000265757
2 *503:A 0.000218517
3 *496:X 0
4 *203:6 0.000484274
5 *503:A *503:B 5.67058e-05
6 seg1[5] *503:A 0
7 *42:8 *503:A 6.07611e-06
8 *42:8 *576:D 6.07929e-05
9 *74:43 *503:A 6.07611e-06
10 *74:52 *503:A 0
11 *74:67 *503:A 0
12 *74:67 *576:D 0
13 *132:26 *503:A 0
14 *132:26 *576:D 0.00012103
15 *155:79 *503:A 0
16 *182:8 *503:A 5.50049e-05
*RES
1 *496:X *203:6 38 
2 *203:6 *503:A 42.2879 
3 *203:6 *576:D 43.3857 
*END

*D_NET *204 0.00160748
*CONN
*I *503:B I *D sky130_fd_sc_hd__and4_1
*I *577:D I *D sky130_fd_sc_hd__dfrtp_1
*I *498:X O *D sky130_fd_sc_hd__a21o_1
*CAP
1 *503:B 0.000207873
2 *577:D 0
3 *498:X 0
4 *204:12 0.000265454
5 *204:4 0.000473327
6 *503:B *205:35 3.91386e-05
7 *204:12 *205:35 0
8 *503:A *503:B 5.67058e-05
9 *577:CLK *204:12 0
10 *577:RESET_B *204:12 2.93747e-05
11 *43:10 *204:12 0.000321581
12 *74:43 *204:12 0
13 *94:49 *503:B 9.91798e-05
14 *94:55 *204:12 0
15 *182:8 *503:B 0.000114846
*RES
1 *498:X *204:4 23 
2 *204:4 *204:12 35.6964 
3 *204:12 *577:D 23 
4 *204:4 *503:B 28.3029 
*END

*D_NET *205 0.00300976
*CONN
*I *503:C I *D sky130_fd_sc_hd__and4_1
*I *578:D I *D sky130_fd_sc_hd__dfrtp_1
*I *500:X O *D sky130_fd_sc_hd__a21o_1
*CAP
1 *503:C 0
2 *578:D 0.000276394
3 *500:X 5.61083e-05
4 *205:35 0.000207348
5 *205:12 0.00113755
6 *205:8 0.000709913
7 *205:35 *503:D 6.17437e-06
8 *503:B *205:35 3.91386e-05
9 *578:RESET_B *205:12 0.000298001
10 *74:33 *205:35 4.76829e-05
11 *74:43 *578:D 2.58572e-05
12 *74:43 *205:12 5.27215e-06
13 *74:43 *205:35 0
14 *74:52 *205:35 4.96264e-05
15 *94:49 *205:35 5.30475e-05
16 *113:19 *205:8 3.76761e-05
17 *173:8 *205:8 3.76761e-05
18 *182:8 *205:35 2.22973e-05
19 *204:12 *205:35 0
*RES
1 *500:X *205:8 39.2014 
2 *205:8 *205:12 23.7207 
3 *205:12 *578:D 26.9771 
4 *205:12 *205:35 35.075 
5 *205:35 *503:C 23 
*END

*D_NET *206 0.00276566
*CONN
*I *579:D I *D sky130_fd_sc_hd__dfrtp_1
*I *503:D I *D sky130_fd_sc_hd__and4_1
*I *502:X O *D sky130_fd_sc_hd__a21o_1
*CAP
1 *579:D 0
2 *503:D 0.000311757
3 *502:X 0.00029782
4 *206:14 0.00038031
5 *206:10 0.000366373
6 *579:CLK *503:D 0.000145238
7 *44:8 *206:10 0.000105175
8 *74:18 *206:10 1.59071e-05
9 *74:33 *206:10 5.79559e-05
10 *79:6 *503:D 0.000118696
11 *79:6 *206:14 9.05785e-05
12 *91:72 *503:D 5.81168e-05
13 *91:72 *206:14 6.41046e-05
14 *94:49 *503:D 0.000375265
15 *112:14 *503:D 5.3304e-05
16 *132:14 *206:10 0.00013449
17 *173:8 *206:10 4.334e-05
18 *182:8 *503:D 0.000141052
19 *205:35 *503:D 6.17437e-06
*RES
1 *502:X *206:10 43.8207 
2 *206:10 *206:14 17.0507 
3 *206:14 *503:D 32.3629 
4 *206:14 *579:D 23 
*END

*D_NET *207 0.0016513
*CONN
*I *519:A I *D sky130_fd_sc_hd__and3_1
*I *580:D I *D sky130_fd_sc_hd__dfrtp_1
*I *507:X O *D sky130_fd_sc_hd__a21o_1
*CAP
1 *519:A 0
2 *580:D 0
3 *507:X 0.000431957
4 *207:18 0.000148782
5 *207:8 0.000580739
6 *207:18 *208:26 3.28979e-05
7 *580:CLK *207:18 6.17437e-06
8 *667:A *207:8 5.71893e-05
9 *667:A *207:18 5.67058e-05
10 *80:74 *207:8 1.05235e-05
11 *81:20 *207:8 6.04112e-05
12 *81:20 *207:18 4.6318e-06
13 *85:37 *207:18 2.02872e-05
14 *85:48 *207:18 0.000141879
15 *93:55 *207:8 9.35071e-05
16 *99:14 *207:8 5.61255e-06
17 *147:90 *207:18 0
*RES
1 *507:X *207:8 28.8829 
2 *207:8 *207:18 33.1486 
3 *207:18 *580:D 23 
4 *207:8 *519:A 23 
*END

*D_NET *208 0.00405958
*CONN
*I *581:D I *D sky130_fd_sc_hd__dfrtp_1
*I *519:B I *D sky130_fd_sc_hd__and3_1
*I *509:X O *D sky130_fd_sc_hd__a21o_1
*CAP
1 *581:D 7.19689e-05
2 *519:B 0
3 *509:X 0.000113009
4 *208:26 0.000718706
5 *208:16 0.000892253
6 *208:10 0.000214587
7 *208:26 *209:10 1.14452e-05
8 *580:RESET_B *208:26 0.000215778
9 *81:20 *208:26 0.000117235
10 *85:35 *208:10 1.56446e-05
11 *85:35 *208:16 0.000263814
12 *85:35 *208:26 8.48502e-06
13 *85:37 *208:26 0.000149864
14 *85:89 *581:D 1.69668e-05
15 *92:106 *208:10 5.3304e-05
16 *94:37 *581:D 0.000166513
17 *94:37 *208:26 0.000111852
18 *115:27 *208:10 0.000155122
19 *115:27 *208:16 0.000222948
20 *116:18 *208:10 8.29264e-05
21 *134:10 *581:D 4.85126e-05
22 *134:10 *208:26 2.60152e-05
23 *135:8 *208:26 4.17929e-05
24 *147:14 *208:10 1.47563e-05
25 *154:47 *208:10 0.000178227
26 *154:47 *208:26 5.3304e-05
27 *154:53 *208:26 6.16531e-05
28 *207:18 *208:26 3.28979e-05
*RES
1 *509:X *208:10 41.2521 
2 *208:10 *208:16 33.0036 
3 *208:16 *208:26 42.2836 
4 *208:26 *519:B 38 
5 *208:16 *581:D 40.2579 
*END

*D_NET *209 0.00268886
*CONN
*I *582:D I *D sky130_fd_sc_hd__dfrtp_1
*I *518:A I *D sky130_fd_sc_hd__and4_1
*I *511:X O *D sky130_fd_sc_hd__a21o_1
*CAP
1 *582:D 9.55744e-05
2 *518:A 0.000600175
3 *511:X 0.000272627
4 *209:10 0.000968376
5 *518:A *210:20 5.56336e-05
6 *582:RESET_B *518:A 0
7 *667:A *209:10 1.21972e-05
8 *81:20 *209:10 0.000133813
9 *85:48 *518:A 0
10 *85:48 *209:10 0
11 *93:55 *209:10 2.95125e-05
12 *94:20 *518:A 1.08287e-05
13 *99:14 *209:10 5.3304e-05
14 *135:8 *209:10 8.62783e-05
15 *136:10 *518:A 8.09334e-05
16 *136:10 *209:10 0
17 *147:37 *518:A 0.000140935
18 *147:56 *518:A 0.000137222
19 *150:114 *209:10 0
20 *208:26 *209:10 1.14452e-05
*RES
1 *511:X *209:10 43.4686 
2 *209:10 *518:A 49.9314 
3 *209:10 *582:D 39.5743 
*END

*D_NET *210 0.00286198
*CONN
*I *518:B I *D sky130_fd_sc_hd__and4_1
*I *583:D I *D sky130_fd_sc_hd__dfrtp_1
*I *513:X O *D sky130_fd_sc_hd__a21o_1
*CAP
1 *518:B 6.62828e-05
2 *583:D 0
3 *513:X 0.000236167
4 *210:20 0.000681842
5 *210:6 0.000984292
6 *210:6 *518:D 3.02824e-05
7 *513:B1 *210:6 3.7122e-06
8 *518:A *210:20 5.56336e-05
9 *632:A *210:20 0.000140935
10 *48:12 *210:20 0.000403554
11 *94:20 *518:B 3.82137e-05
12 *94:20 *210:6 2.22419e-05
13 *94:20 *210:20 2.45032e-06
14 *118:6 *210:20 0.000140259
15 *118:16 *518:B 4.00259e-06
16 *147:56 *518:B 0
17 *150:53 *210:20 5.21127e-05
*RES
1 *513:X *210:6 26.0036 
2 *210:6 *210:20 43.92 
3 *210:20 *583:D 23 
4 *210:6 *518:B 24.8229 
*END

*D_NET *211 0.00312384
*CONN
*I *518:C I *D sky130_fd_sc_hd__and4_1
*I *584:D I *D sky130_fd_sc_hd__dfrtp_1
*I *515:X O *D sky130_fd_sc_hd__a21o_1
*CAP
1 *518:C 0.000398908
2 *584:D 0.000343719
3 *515:X 0.000218039
4 *211:10 0.000960666
5 *518:C *518:D 0.000457425
6 *211:10 *518:D 0.000126343
7 *211:10 *585:D 1.01436e-05
8 *547:A *584:D 5.2894e-05
9 *72:10 *211:10 0.000190627
10 *81:12 *518:C 9.28078e-06
11 *85:111 *518:C 0
12 *94:20 *518:C 0.000100061
13 *119:14 *584:D 0.000165995
14 *147:37 *518:C 0
15 *150:53 *518:C 0
16 *154:66 *584:D 8.97364e-05
*RES
1 *515:X *211:10 41.9564 
2 *211:10 *584:D 45.2914 
3 *211:10 *518:C 45.9336 
*END

*D_NET *212 0.00282923
*CONN
*I *518:D I *D sky130_fd_sc_hd__and4_1
*I *585:D I *D sky130_fd_sc_hd__dfrtp_1
*I *517:X O *D sky130_fd_sc_hd__a21o_1
*CAP
1 *518:D 0.000375493
2 *585:D 0.000329872
3 *517:X 4.99221e-05
4 *212:8 0.000755287
5 *516:A3 *585:D 0
6 *518:C *518:D 0.000457425
7 *585:CLK *585:D 4.46353e-05
8 *585:RESET_B *585:D 2.93747e-05
9 *51:8 *585:D 0.000110922
10 *72:10 *212:8 5.3304e-05
11 *85:111 *518:D 0
12 *85:117 *518:D 0
13 *94:20 *518:D 9.64943e-05
14 *154:78 *585:D 0
15 *154:90 *585:D 4.3041e-05
16 *176:8 *518:D 8.4047e-05
17 *176:8 *585:D 5.94125e-05
18 *179:8 *518:D 0.000166513
19 *183:10 *585:D 6.71306e-06
20 *210:6 *518:D 3.02824e-05
21 *211:10 *518:D 0.000126343
22 *211:10 *585:D 1.01436e-05
*RES
1 *517:X *212:8 38.6214 
2 *212:8 *585:D 44.0693 
3 *212:8 *518:D 46.99 
*END

*D_NET *213 0.000520731
*CONN
*I *586:D I *D sky130_fd_sc_hd__dfrtp_1
*I *522:X O *D sky130_fd_sc_hd__a21o_1
*CAP
1 *586:D 0
2 *522:X 0.000158676
3 *213:10 0.000158676
4 *213:10 *587:D 3.3746e-05
5 *525:A1 *213:10 1.14876e-05
6 *88:80 *213:10 2.64616e-05
7 *91:51 *213:10 6.48142e-05
8 *157:90 *213:10 6.6869e-05
*RES
1 *522:X *213:10 41.0036 
2 *213:10 *586:D 38 
*END

*D_NET *214 0.00268307
*CONN
*I *587:D I *D sky130_fd_sc_hd__dfrtp_1
*I *524:X O *D sky130_fd_sc_hd__a21o_1
*CAP
1 *587:D 0.000126042
2 *524:X 0.000589106
3 *214:8 0.000715148
4 *524:A1 *214:8 0.000228001
5 *88:78 *587:D 2.76611e-06
6 *91:51 *587:D 0.000223034
7 *92:20 *214:8 0.000128612
8 *121:16 *214:8 9.84794e-05
9 *151:79 *587:D 0.000357921
10 *157:90 *587:D 0
11 *162:10 *214:8 0.000180218
12 *213:10 *587:D 3.3746e-05
*RES
1 *524:X *214:8 47.1971 
2 *214:8 *587:D 42.7229 
*END

*D_NET *215 0.0019751
*CONN
*I *588:D I *D sky130_fd_sc_hd__dfrtp_1
*I *526:X O *D sky130_fd_sc_hd__a21o_1
*CAP
1 *588:D 0
2 *526:X 0.000619204
3 *215:10 0.000619204
4 *596:D *215:10 0.000312146
5 *608:A *215:10 0.000361027
6 *88:105 *215:10 4.59027e-05
7 *155:113 *215:10 0
8 *157:59 *215:10 1.02387e-05
9 *185:12 *215:10 7.37814e-06
10 *188:10 *215:10 0
*RES
1 *526:X *215:10 49.1443 
2 *215:10 *588:D 38 
*END

*D_NET *216 0.000565011
*CONN
*I *589:D I *D sky130_fd_sc_hd__dfrtp_1
*I *528:X O *D sky130_fd_sc_hd__a21o_1
*CAP
1 *589:D 0
2 *528:X 0.000174252
3 *216:10 0.000174252
4 *82:12 *216:10 0.000143655
5 *82:66 *216:10 7.28526e-05
6 *159:12 *216:10 0
*RES
1 *528:X *216:10 41.48 
2 *216:10 *589:D 38 
*END

*D_NET *217 0.00152734
*CONN
*I *590:D I *D sky130_fd_sc_hd__dfrtp_1
*I *530:X O *D sky130_fd_sc_hd__a21o_1
*CAP
1 *590:D 0
2 *530:X 0.000422003
3 *217:10 0.000422003
4 *82:33 *217:10 5.50106e-05
5 *95:132 *217:10 0.000514244
6 *96:48 *217:10 0.000114083
*RES
1 *530:X *217:10 45.4157 
2 *217:10 *590:D 38 
*END

*D_NET *218 0.000653453
*CONN
*I *591:D I *D sky130_fd_sc_hd__dfrtp_1
*I *532:X O *D sky130_fd_sc_hd__a21o_1
*CAP
1 *591:D 6.69108e-05
2 *532:X 9.00327e-05
3 *218:8 0.000156943
4 *591:CLK *218:8 0
5 *82:25 *591:D 0.000128391
6 *94:130 *218:8 0
7 *96:69 *218:8 0.000138727
8 *126:12 *591:D 7.24484e-05
*RES
1 *532:X *218:8 39.9057 
2 *218:8 *591:D 40.5271 
*END
