*SPEF "ieee 1481-1999"
*DESIGN "mini_light_up_game"
*DATE "09:55:36 Tuesday April 28, 2026"
*VENDOR "The OpenROAD Project"
*PROGRAM "OpenROAD"
*VERSION "edf00dff99f6c40d67a30c0e22a8191c5d2ed9d6"
*DESIGN_FLOW "NAME_SCOPE LOCAL" "PIN_CAP NONE"
*DIVIDER /
*DELIMITER :
*BUS_DELIMITER []
*T_UNIT 1 NS
*C_UNIT 1 PF
*R_UNIT 1 OHM
*L_UNIT 1 HENRY

*NAME_MAP
*3 btn
*4 clk
*5 reset
*6 seg0[0]
*7 seg0[1]
*8 seg0[2]
*9 seg0[3]
*10 seg0[4]
*11 seg0[5]
*12 net38
*13 seg1[0]
*14 seg1[1]
*15 seg1[2]
*16 seg1[3]
*17 seg1[4]
*18 seg1[5]
*19 net39
*20 seg2[0]
*21 seg2[1]
*22 seg2[2]
*23 seg2[3]
*24 seg2[4]
*25 seg2[5]
*26 net40
*27 seg3[0]
*28 seg3[1]
*29 seg3[2]
*30 seg3[3]
*31 seg3[4]
*32 seg3[5]
*33 net41
*34 _000_
*35 _001_
*36 _002_
*37 _003_
*38 _004_
*39 _005_
*40 _006_
*41 _007_
*42 _008_
*43 _009_
*44 _010_
*45 _011_
*46 _012_
*47 _013_
*48 _014_
*49 _015_
*50 _016_
*51 _017_
*52 _018_
*53 _019_
*54 _020_
*55 _021_
*56 _022_
*57 _023_
*58 _024_
*59 _025_
*60 _026_
*61 _027_
*62 _028_
*63 _029_
*64 _030_
*65 _031_
*66 _032_
*67 _033_
*68 _034_
*69 _035_
*70 _036_
*71 _037_
*72 _038_
*73 _039_
*74 _040_
*75 _041_
*76 _042_
*77 _043_
*78 _044_
*79 _045_
*80 _046_
*81 _047_
*82 _048_
*83 btn_prev
*84 clknet_0_clk
*85 clknet_2_0__leaf_clk
*86 clknet_2_1__leaf_clk
*87 clknet_2_2__leaf_clk
*88 clknet_2_3__leaf_clk
*89 cnt\[0\]
*90 cnt\[1\]
*91 cursor\[0\]
*92 cursor\[1\]
*93 cursor\[2\]
*94 cursor\[3\]
*95 cursor\[4\]
*96 cursor\[5\]
*97 done_comb\[0\]
*98 done_comb\[1\]
*99 done_comb\[2\]
*100 done_ff\[0\]
*101 done_ff\[1\]
*102 done_ff\[2\]
*103 mem0\[0\]
*104 mem0\[1\]
*105 mem0\[2\]
*106 mem0\[3\]
*107 mem0\[4\]
*108 mem0\[5\]
*109 mem1\[0\]
*110 mem1\[1\]
*111 mem1\[2\]
*112 mem1\[3\]
*113 mem1\[4\]
*114 mem1\[5\]
*115 mem2\[0\]
*116 mem2\[1\]
*117 mem2\[2\]
*118 mem2\[3\]
*119 mem2\[4\]
*120 mem2\[5\]
*121 mem3\[0\]
*122 mem3\[1\]
*123 mem3\[2\]
*124 mem3\[3\]
*125 mem3\[4\]
*126 mem3\[5\]
*127 net1
*128 net10
*129 net11
*130 net12
*131 net13
*132 net14
*133 net15
*134 net16
*135 net17
*136 net18
*137 net19
*138 net2
*139 net20
*140 net21
*141 net22
*142 net23
*143 net24
*144 net25
*145 net26
*146 net27
*147 net28
*148 net29
*149 net3
*150 net30
*151 net31
*152 net32
*153 net33
*154 net34
*155 net35
*156 net36
*157 net37
*158 net4
*159 net42
*160 net43
*161 net44
*162 net45
*163 net46
*164 net47
*165 net48
*166 net49
*167 net5
*168 net50
*169 net51
*170 net52
*171 net53
*172 net54
*173 net55
*174 net56
*175 net57
*176 net58
*177 net59
*178 net6
*179 net60
*180 net61
*181 net62
*182 net63
*183 net64
*184 net65
*185 net66
*186 net67
*187 net68
*188 net69
*189 net7
*190 net70
*191 net71
*192 net72
*193 net8
*194 net9
*195 nxt0\[0\]
*196 nxt0\[1\]
*197 nxt0\[2\]
*198 nxt0\[3\]
*199 nxt0\[4\]
*200 nxt0\[5\]
*201 nxt1\[0\]
*202 nxt1\[1\]
*203 nxt1\[2\]
*204 nxt1\[3\]
*205 nxt1\[4\]
*206 nxt1\[5\]
*207 nxt2\[0\]
*208 nxt2\[1\]
*209 nxt2\[2\]
*210 nxt2\[3\]
*211 nxt2\[4\]
*212 nxt2\[5\]
*213 nxt3\[0\]
*214 nxt3\[1\]
*215 nxt3\[2\]
*216 nxt3\[3\]
*217 nxt3\[4\]
*218 nxt3\[5\]
*219 FILLER_0_105
*220 FILLER_0_111
*221 FILLER_0_113
*222 FILLER_0_121
*223 FILLER_0_15
*224 FILLER_0_27
*225 FILLER_0_29
*226 FILLER_0_3
*227 FILLER_0_35
*228 FILLER_0_55
*229 FILLER_0_57
*230 FILLER_0_83
*231 FILLER_0_93
*232 FILLER_10_11
*233 FILLER_10_23
*234 FILLER_10_27
*235 FILLER_10_40
*236 FILLER_10_47
*237 FILLER_10_51
*238 FILLER_10_82
*239 FILLER_10_92
*240 FILLER_11_108
*241 FILLER_11_113
*242 FILLER_11_24
*243 FILLER_11_28
*244 FILLER_11_3
*245 FILLER_11_57
*246 FILLER_11_77
*247 FILLER_11_88
*248 FILLER_12_29
*249 FILLER_12_59
*250 FILLER_12_7
*251 FILLER_12_83
*252 FILLER_12_85
*253 FILLER_12_91
*254 FILLER_13_121
*255 FILLER_13_3
*256 FILLER_13_85
*257 FILLER_14_11
*258 FILLER_14_111
*259 FILLER_14_119
*260 FILLER_14_40
*261 FILLER_14_82
*262 FILLER_14_91
*263 FILLER_15_102
*264 FILLER_15_110
*265 FILLER_15_113
*266 FILLER_15_117
*267 FILLER_15_25
*268 FILLER_15_3
*269 FILLER_15_54
*270 FILLER_15_57
*271 FILLER_15_73
*272 FILLER_15_81
*273 FILLER_16_112
*274 FILLER_16_119
*275 FILLER_16_15
*276 FILLER_16_29
*277 FILLER_16_3
*278 FILLER_16_85
*279 FILLER_17_11
*280 FILLER_17_110
*281 FILLER_17_121
*282 FILLER_17_55
*283 FILLER_17_57
*284 FILLER_17_63
*285 FILLER_17_7
*286 FILLER_18_120
*287 FILLER_18_15
*288 FILLER_18_27
*289 FILLER_18_3
*290 FILLER_18_38
*291 FILLER_18_50
*292 FILLER_18_62
*293 FILLER_18_96
*294 FILLER_19_111
*295 FILLER_19_113
*296 FILLER_19_15
*297 FILLER_19_27
*298 FILLER_19_3
*299 FILLER_19_39
*300 FILLER_19_51
*301 FILLER_19_55
*302 FILLER_19_57
*303 FILLER_19_69
*304 FILLER_19_80
*305 FILLER_19_89
*306 FILLER_19_99
*307 FILLER_1_15
*308 FILLER_1_23
*309 FILLER_1_3
*310 FILLER_1_52
*311 FILLER_1_60
*312 FILLER_1_89
*313 FILLER_20_105
*314 FILLER_20_111
*315 FILLER_20_113
*316 FILLER_20_15
*317 FILLER_20_27
*318 FILLER_20_29
*319 FILLER_20_3
*320 FILLER_20_41
*321 FILLER_20_49
*322 FILLER_20_55
*323 FILLER_20_57
*324 FILLER_20_69
*325 FILLER_20_77
*326 FILLER_20_83
*327 FILLER_20_85
*328 FILLER_20_93
*329 FILLER_20_98
*330 FILLER_2_107
*331 FILLER_2_18
*332 FILLER_2_24
*333 FILLER_2_35
*334 FILLER_2_6
*335 FILLER_2_69
*336 FILLER_2_78
*337 FILLER_2_83
*338 FILLER_2_85
*339 FILLER_3_111
*340 FILLER_3_119
*341 FILLER_3_15
*342 FILLER_3_3
*343 FILLER_3_65
*344 FILLER_4_111
*345 FILLER_4_119
*346 FILLER_4_27
*347 FILLER_4_29
*348 FILLER_4_3
*349 FILLER_4_73
*350 FILLER_5_102
*351 FILLER_5_110
*352 FILLER_5_113
*353 FILLER_5_3
*354 FILLER_5_46
*355 FILLER_5_80
*356 FILLER_6_121
*357 FILLER_6_49
*358 FILLER_6_7
*359 FILLER_6_74
*360 FILLER_6_82
*361 FILLER_6_88
*362 FILLER_7_113
*363 FILLER_7_26
*364 FILLER_7_60
*365 FILLER_7_68
*366 FILLER_7_7
*367 FILLER_7_91
*368 FILLER_8_27
*369 FILLER_8_3
*370 FILLER_8_64
*371 FILLER_8_75
*372 FILLER_8_82
*373 FILLER_8_85
*374 FILLER_9_102
*375 FILLER_9_13
*376 FILLER_9_52
*377 FILLER_9_57
*378 FILLER_9_7
*379 FILLER_9_94
*380 PHY_EDGE_ROW_0_Left_21
*381 PHY_EDGE_ROW_0_Right_0
*382 PHY_EDGE_ROW_10_Left_31
*383 PHY_EDGE_ROW_10_Right_10
*384 PHY_EDGE_ROW_11_Left_32
*385 PHY_EDGE_ROW_11_Right_11
*386 PHY_EDGE_ROW_12_Left_33
*387 PHY_EDGE_ROW_12_Right_12
*388 PHY_EDGE_ROW_13_Left_34
*389 PHY_EDGE_ROW_13_Right_13
*390 PHY_EDGE_ROW_14_Left_35
*391 PHY_EDGE_ROW_14_Right_14
*392 PHY_EDGE_ROW_15_Left_36
*393 PHY_EDGE_ROW_15_Right_15
*394 PHY_EDGE_ROW_16_Left_37
*395 PHY_EDGE_ROW_16_Right_16
*396 PHY_EDGE_ROW_17_Left_38
*397 PHY_EDGE_ROW_17_Right_17
*398 PHY_EDGE_ROW_18_Left_39
*399 PHY_EDGE_ROW_18_Right_18
*400 PHY_EDGE_ROW_19_Left_40
*401 PHY_EDGE_ROW_19_Right_19
*402 PHY_EDGE_ROW_1_Left_22
*403 PHY_EDGE_ROW_1_Right_1
*404 PHY_EDGE_ROW_20_Left_41
*405 PHY_EDGE_ROW_20_Right_20
*406 PHY_EDGE_ROW_2_Left_23
*407 PHY_EDGE_ROW_2_Right_2
*408 PHY_EDGE_ROW_3_Left_24
*409 PHY_EDGE_ROW_3_Right_3
*410 PHY_EDGE_ROW_4_Left_25
*411 PHY_EDGE_ROW_4_Right_4
*412 PHY_EDGE_ROW_5_Left_26
*413 PHY_EDGE_ROW_5_Right_5
*414 PHY_EDGE_ROW_6_Left_27
*415 PHY_EDGE_ROW_6_Right_6
*416 PHY_EDGE_ROW_7_Left_28
*417 PHY_EDGE_ROW_7_Right_7
*418 PHY_EDGE_ROW_8_Left_29
*419 PHY_EDGE_ROW_8_Right_8
*420 PHY_EDGE_ROW_9_Left_30
*421 PHY_EDGE_ROW_9_Right_9
*422 TAP_TAPCELL_ROW_0_42
*423 TAP_TAPCELL_ROW_0_43
*424 TAP_TAPCELL_ROW_0_44
*425 TAP_TAPCELL_ROW_0_45
*426 TAP_TAPCELL_ROW_10_64
*427 TAP_TAPCELL_ROW_10_65
*428 TAP_TAPCELL_ROW_11_66
*429 TAP_TAPCELL_ROW_11_67
*430 TAP_TAPCELL_ROW_12_68
*431 TAP_TAPCELL_ROW_12_69
*432 TAP_TAPCELL_ROW_13_70
*433 TAP_TAPCELL_ROW_13_71
*434 TAP_TAPCELL_ROW_14_72
*435 TAP_TAPCELL_ROW_14_73
*436 TAP_TAPCELL_ROW_15_74
*437 TAP_TAPCELL_ROW_15_75
*438 TAP_TAPCELL_ROW_16_76
*439 TAP_TAPCELL_ROW_16_77
*440 TAP_TAPCELL_ROW_17_78
*441 TAP_TAPCELL_ROW_17_79
*442 TAP_TAPCELL_ROW_18_80
*443 TAP_TAPCELL_ROW_18_81
*444 TAP_TAPCELL_ROW_19_82
*445 TAP_TAPCELL_ROW_19_83
*446 TAP_TAPCELL_ROW_1_46
*447 TAP_TAPCELL_ROW_1_47
*448 TAP_TAPCELL_ROW_20_84
*449 TAP_TAPCELL_ROW_20_85
*450 TAP_TAPCELL_ROW_20_86
*451 TAP_TAPCELL_ROW_20_87
*452 TAP_TAPCELL_ROW_2_48
*453 TAP_TAPCELL_ROW_2_49
*454 TAP_TAPCELL_ROW_3_50
*455 TAP_TAPCELL_ROW_3_51
*456 TAP_TAPCELL_ROW_4_52
*457 TAP_TAPCELL_ROW_4_53
*458 TAP_TAPCELL_ROW_5_54
*459 TAP_TAPCELL_ROW_5_55
*460 TAP_TAPCELL_ROW_6_56
*461 TAP_TAPCELL_ROW_6_57
*462 TAP_TAPCELL_ROW_7_58
*463 TAP_TAPCELL_ROW_7_59
*464 TAP_TAPCELL_ROW_8_60
*465 TAP_TAPCELL_ROW_8_61
*466 TAP_TAPCELL_ROW_9_62
*467 TAP_TAPCELL_ROW_9_63
*468 _049_
*469 _050_
*470 _051_
*471 _052_
*472 _053_
*473 _054_
*474 _055_
*475 _056_
*476 _057_
*477 _058_
*478 _059_
*479 _060_
*480 _061_
*481 _062_
*482 _063_
*483 _064_
*484 _065_
*485 _066_
*486 _067_
*487 _068_
*488 _069_
*489 _070_
*490 _071_
*491 _072_
*492 _073_
*493 _074_
*494 _075_
*495 _076_
*496 _077_
*497 _078_
*498 _079_
*499 _080_
*500 _081_
*501 _082_
*502 _083_
*503 _084_
*504 _085_
*505 _086_
*506 _087_
*507 _088_
*508 _089_
*509 _090_
*510 _091_
*511 _092_
*512 _093_
*513 _094_
*514 _095_
*515 _096_
*516 _097_
*517 _098_
*518 _099_
*519 _100_
*520 _101_
*521 _102_
*522 _103_
*523 _104_
*524 _105_
*525 _106_
*526 _107_
*527 _108_
*528 _109_
*529 _110_
*530 _111_
*531 _112_
*532 _113_
*533 _114_
*534 _115_
*535 _116_
*536 _117_
*537 _118_
*538 _119_
*539 _120_
*540 _121_
*541 _122_
*542 _123_
*543 _124_
*544 _125_
*545 _126_
*546 _127_
*547 _128_
*548 _129_
*549 _130_
*550 _131_
*551 _132_
*552 _133_
*553 _134_
*554 _135_
*555 _136_
*556 _137_
*557 _138_
*558 _139_
*559 _140_
*560 _141_
*561 _142_
*562 _143_
*563 _144_
*564 _145_
*565 _146_
*566 _147_
*567 _148_
*568 _149_
*569 _150_
*570 _151_
*571 _152_
*572 _153_
*573 _154_
*574 _155_
*575 _156_
*576 _157_
*577 _158_
*578 _159_
*579 _160_
*580 _161_
*581 _162_
*582 _163_
*583 _164_
*584 _165_
*585 _166_
*586 _167_
*587 _168_
*588 _169_
*589 _170_
*590 _171_
*591 _172_
*592 _173_
*593 _174_
*594 _175_
*595 _176_
*596 _177_
*597 _178_
*598 _179_
*599 _180_
*600 _181_
*601 _182_
*602 _183_
*603 _184_
*604 clkbuf_0_clk
*605 clkbuf_2_0__f_clk
*606 clkbuf_2_1__f_clk
*607 clkbuf_2_2__f_clk
*608 clkbuf_2_3__f_clk
*609 clkload0
*610 clkload1
*611 clkload2
*612 fanout28
*613 fanout29
*614 fanout30
*615 fanout31
*616 fanout32
*617 fanout33
*618 fanout34
*619 fanout35
*620 fanout36
*621 fanout37
*622 hold1
*623 hold10
*624 hold11
*625 hold12
*626 hold13
*627 hold14
*628 hold15
*629 hold16
*630 hold17
*631 hold18
*632 hold19
*633 hold2
*634 hold20
*635 hold21
*636 hold22
*637 hold23
*638 hold24
*639 hold25
*640 hold26
*641 hold27
*642 hold28
*643 hold29
*644 hold3
*645 hold30
*646 hold31
*647 hold4
*648 hold5
*649 hold6
*650 hold7
*651 hold8
*652 hold9
*653 input1
*654 input2
*655 max_cap27
*656 mini_light_up_game_38
*657 mini_light_up_game_39
*658 mini_light_up_game_40
*659 mini_light_up_game_41
*660 output10
*661 output11
*662 output12
*663 output13
*664 output14
*665 output15
*666 output16
*667 output17
*668 output18
*669 output19
*670 output20
*671 output21
*672 output22
*673 output23
*674 output24
*675 output25
*676 output26
*677 output3
*678 output4
*679 output5
*680 output6
*681 output7
*682 output8
*683 output9

*PORTS
btn I
clk I
reset I
seg0[0] O
seg0[1] O
seg0[2] O
seg0[3] O
seg0[4] O
seg0[5] O
seg0[6] O
seg1[0] O
seg1[1] O
seg1[2] O
seg1[3] O
seg1[4] O
seg1[5] O
seg1[6] O
seg2[0] O
seg2[1] O
seg2[2] O
seg2[3] O
seg2[4] O
seg2[5] O
seg2[6] O
seg3[0] O
seg3[1] O
seg3[2] O
seg3[3] O
seg3[4] O
seg3[5] O
seg3[6] O

*D_NET *3 0.000914513
*CONN
*P btn I
*I *653:A I *D sky130_fd_sc_hd__buf_1
*CAP
1 btn 0.000319125
2 *653:A 0.000319125
3 *653:A seg0[1] 9.28756e-05
4 *653:A seg3[4] 9.28756e-05
5 *653:A *555:A 3.71247e-05
6 *653:A *621:A 0
7 *653:A *127:12 5.33882e-05
*RES
1 btn *653:A 21.5342 
*END

*D_NET *4 0.00623377
*CONN
*P clk I
*I *604:A I *D sky130_fd_sc_hd__clkbuf_16
*CAP
1 clk 0.00230743
2 *604:A 0.00230743
3 *604:A seg1[0] 3.19385e-05
4 *604:A seg1[2] 7.34412e-05
5 *604:A seg1[5] 0
6 *604:A *493:A2 0.000502184
7 *604:A *493:B1 1.90936e-05
8 *604:A *502:B1 0.000103267
9 *604:A *504:A 0.00021674
10 *604:A *92:65 8.84829e-05
11 *604:A *92:82 0.000223517
12 *604:A *93:12 1.11798e-05
13 *604:A *96:87 8.04138e-05
14 *604:A *114:12 0.00012401
15 *604:A *148:136 0
16 *604:A *148:140 0.000144641
*RES
1 clk *604:A 34.4076 
*END

*D_NET *5 0.000694626
*CONN
*P reset I
*I *654:A I *D sky130_fd_sc_hd__buf_1
*CAP
1 reset 0.000347313
2 *654:A 0.000347313
3 *654:A *488:B1 0
4 *654:A *138:14 0
*RES
1 reset *654:A 20.0163 
*END

*D_NET *6 0.00100077
*CONN
*P seg0[0] O
*I *677:X O *D sky130_fd_sc_hd__buf_2
*CAP
1 seg0[0] 0.000374646
2 *677:X 0.000374646
3 seg0[0] seg0[1] 0.000102589
4 seg0[0] *478:B1 7.8327e-05
5 seg0[0] *677:A 7.0557e-05
*RES
1 *677:X seg0[0] 21.9098 
*END

*D_NET *7 0.00160612
*CONN
*P seg0[1] O
*I *678:X O *D sky130_fd_sc_hd__buf_2
*CAP
1 seg0[1] 0.000472526
2 *678:X 0.000472526
3 seg0[1] seg3[4] 0
4 seg0[1] *91:149 0.000295167
5 seg0[1] *95:118 5.59369e-05
6 seg0[1] *156:34 0.000114499
7 seg0[0] seg0[1] 0.000102589
8 *653:A seg0[1] 9.28756e-05
*RES
1 *678:X seg0[1] 20.2019 
*END

*D_NET *8 0.00165655
*CONN
*P seg0[2] O
*I *679:X O *D sky130_fd_sc_hd__buf_2
*CAP
1 seg0[2] 0.000603052
2 *679:X 0.000603052
3 seg0[2] seg0[3] 0
4 seg0[2] *481:A1 0.000360894
5 seg0[2] *516:A2 1.11843e-05
6 seg0[2] *534:A 7.83659e-05
*RES
1 *679:X seg0[2] 24.5143 
*END

*D_NET *9 0.00176049
*CONN
*P seg0[3] O
*I *680:X O *D sky130_fd_sc_hd__buf_2
*CAP
1 seg0[3] 0.000666427
2 *680:X 0.000666427
3 seg0[3] seg0[4] 5.52302e-05
4 seg0[3] *481:A1 8.07879e-05
5 seg0[3] *481:A3 5.7616e-05
6 seg0[3] *534:A 5.51502e-05
7 seg0[3] *147:125 0.000178847
8 seg0[2] seg0[3] 0
*RES
1 *680:X seg0[3] 25.8714 
*END

*D_NET *10 0.00112427
*CONN
*P seg0[4] O
*I *681:X O *D sky130_fd_sc_hd__buf_2
*CAP
1 seg0[4] 0.000504502
2 *681:X 0.000504502
3 seg0[4] seg0[5] 0
4 seg0[4] *534:A 0
5 seg0[4] *680:A 6.0038e-05
6 seg0[4] *681:A 0
7 seg0[3] seg0[4] 5.52302e-05
*RES
1 *681:X seg0[4] 23.675 
*END

*D_NET *11 0.00158899
*CONN
*P seg0[5] O
*I *682:X O *D sky130_fd_sc_hd__buf_2
*CAP
1 seg0[5] 0.000657313
2 *682:X 0.000657313
3 seg0[5] *487:A2 1.74352e-05
4 seg0[5] *488:A1 0.000232399
5 seg0[5] *681:A 6.05161e-06
6 seg0[5] *148:49 1.48591e-05
7 seg0[5] *148:62 3.61629e-06
8 seg0[4] seg0[5] 0
*RES
1 *682:X seg0[5] 24.925 
*END

*D_NET *12 0.00115036
*CONN
*P seg0[6] O
*I *656:LO O *D sky130_fd_sc_hd__conb_1
*CAP
1 seg0[6] 0.000462453
2 *656:LO 0.000462453
3 seg0[6] seg2[4] 0
4 seg0[6] seg2[5] 0
5 seg0[6] *516:A1 4.51399e-05
6 seg0[6] *548:A 0.000131513
7 seg0[6] *584:RESET_B 4.87953e-05
8 seg0[6] *669:A 0
*RES
1 *656:LO seg0[6] 23.3714 
*END

*D_NET *13 0.000734966
*CONN
*P seg1[0] O
*I *683:X O *D sky130_fd_sc_hd__buf_2
*CAP
1 seg1[0] 0.000348488
2 *683:X 0.000348488
3 seg1[0] *87:47 6.05161e-06
4 *604:A seg1[0] 3.19385e-05
*RES
1 *683:X seg1[0] 20.891 
*END

*D_NET *14 0.000943121
*CONN
*P seg1[1] O
*I *660:X O *D sky130_fd_sc_hd__buf_2
*CAP
1 seg1[1] 0.000471561
2 *660:X 0.000471561
*RES
1 *660:X seg1[1] 22.2464 
*END

*D_NET *15 0.000576844
*CONN
*P seg1[2] O
*I *661:X O *D sky130_fd_sc_hd__buf_2
*CAP
1 seg1[2] 0.000209842
2 *661:X 0.000209842
3 seg1[2] seg1[5] 7.60209e-05
4 seg1[2] *87:49 7.69776e-06
5 *604:A seg1[2] 7.34412e-05
*RES
1 *661:X seg1[2] 18.9972 
*END

*D_NET *16 0.00065476
*CONN
*P seg1[3] O
*I *662:X O *D sky130_fd_sc_hd__buf_2
*CAP
1 seg1[3] 0.000286838
2 *662:X 0.000286838
3 seg1[3] seg1[4] 3.19385e-05
4 seg1[3] seg1[5] 0
5 seg1[3] seg2[0] 4.91447e-05
6 seg1[3] seg2[1] 0
*RES
1 *662:X seg1[3] 19.6044 
*END

*D_NET *17 0.000735093
*CONN
*P seg1[4] O
*I *663:X O *D sky130_fd_sc_hd__buf_2
*CAP
1 seg1[4] 0.000338435
2 *663:X 0.000338435
3 seg1[4] seg1[5] 2.25951e-05
4 seg1[4] *578:CLK 3.69047e-06
5 seg1[3] seg1[4] 3.19385e-05
*RES
1 *663:X seg1[4] 20.891 
*END

*D_NET *18 0.000945886
*CONN
*P seg1[5] O
*I *664:X O *D sky130_fd_sc_hd__buf_2
*CAP
1 seg1[5] 0.00036595
2 *664:X 0.00036595
3 seg1[5] *503:A 0
4 seg1[5] *541:A 0.000115369
5 seg1[2] seg1[5] 7.60209e-05
6 seg1[3] seg1[5] 0
7 seg1[4] seg1[5] 2.25951e-05
8 *604:A seg1[5] 0
*RES
1 *664:X seg1[5] 19.6975 
*END

*D_NET *19 0.000608775
*CONN
*P seg1[6] O
*I *657:LO O *D sky130_fd_sc_hd__conb_1
*CAP
1 seg1[6] 0.000256663
2 *657:LO 0.000256663
3 seg1[6] seg3[6] 9.54485e-05
*RES
1 *657:LO seg1[6] 19.4092 
*END

*D_NET *20 0.000975811
*CONN
*P seg2[0] O
*I *665:X O *D sky130_fd_sc_hd__buf_2
*CAP
1 seg2[0] 0.000424662
2 *665:X 0.000424662
3 seg2[0] seg2[1] 3.71658e-05
4 seg2[0] *662:A 4.01768e-05
5 seg1[3] seg2[0] 4.91447e-05
*RES
1 *665:X seg2[0] 22.6018 
*END

*D_NET *21 0.000647046
*CONN
*P seg2[1] O
*I *666:X O *D sky130_fd_sc_hd__buf_2
*CAP
1 seg2[1] 0.000293643
2 *666:X 0.000293643
3 seg2[1] seg2[2] 2.25951e-05
4 seg2[1] seg2[3] 0
5 seg1[3] seg2[1] 0
6 seg2[0] seg2[1] 3.71658e-05
*RES
1 *666:X seg2[1] 19.4092 
*END

*D_NET *22 0.000724586
*CONN
*P seg2[2] O
*I *667:X O *D sky130_fd_sc_hd__buf_2
*CAP
1 seg2[2] 0.000335026
2 *667:X 0.000335026
3 seg2[2] seg2[3] 3.19385e-05
4 seg2[1] seg2[2] 2.25951e-05
*RES
1 *667:X seg2[2] 20.891 
*END

*D_NET *23 0.000499151
*CONN
*P seg2[3] O
*I *668:X O *D sky130_fd_sc_hd__buf_2
*CAP
1 seg2[3] 0.000230711
2 *668:X 0.000230711
3 seg2[3] *85:48 5.7903e-06
4 seg2[1] seg2[3] 0
5 seg2[2] seg2[3] 3.19385e-05
*RES
1 *668:X seg2[3] 18.1949 
*END

*D_NET *24 0.00103905
*CONN
*P seg2[4] O
*I *669:X O *D sky130_fd_sc_hd__buf_2
*CAP
1 seg2[4] 0.000448448
2 *669:X 0.000448448
3 seg2[4] *516:A1 0.000142157
4 seg0[6] seg2[4] 0
*RES
1 *669:X seg2[4] 22.05 
*END

*D_NET *25 0.00140655
*CONN
*P seg2[5] O
*I *670:X O *D sky130_fd_sc_hd__buf_2
*CAP
1 seg2[5] 0.000624782
2 *670:X 0.000624782
3 seg2[5] *516:A1 5.52302e-05
4 seg2[5] *516:A2 6.62761e-05
5 seg2[5] *516:B1 3.61629e-06
6 seg2[5] *670:A 3.18676e-05
7 seg0[6] seg2[5] 0
*RES
1 *670:X seg2[5] 24.7643 
*END

*D_NET *26 0.000643041
*CONN
*P seg2[6] O
*I *658:LO O *D sky130_fd_sc_hd__conb_1
*CAP
1 seg2[6] 0.00032152
2 *658:LO 0.00032152
*RES
1 *658:LO seg2[6] 21.0874 
*END

*D_NET *27 0.00100956
*CONN
*P seg3[0] O
*I *671:X O *D sky130_fd_sc_hd__buf_2
*CAP
1 seg3[0] 0.000493409
2 *671:X 0.000493409
3 seg3[0] seg3[1] 0
4 seg3[0] *671:A 2.27416e-05
*RES
1 *671:X seg3[0] 22.6571 
*END

*D_NET *28 0.000933679
*CONN
*P seg3[1] O
*I *672:X O *D sky130_fd_sc_hd__buf_2
*CAP
1 seg3[1] 0.00046684
2 *672:X 0.00046684
3 seg3[0] seg3[1] 0
*RES
1 *672:X seg3[1] 22.2464 
*END

*D_NET *29 0.000933679
*CONN
*P seg3[2] O
*I *673:X O *D sky130_fd_sc_hd__buf_2
*CAP
1 seg3[2] 0.00046684
2 *673:X 0.00046684
*RES
1 *673:X seg3[2] 22.2464 
*END

*D_NET *30 0.000949367
*CONN
*P seg3[3] O
*I *674:X O *D sky130_fd_sc_hd__buf_2
*CAP
1 seg3[3] 0.000366828
2 *674:X 0.000366828
3 seg3[3] seg3[5] 0.000102589
4 seg3[3] *524:A2 0.000113122
*RES
1 *674:X seg3[3] 21.9098 
*END

*D_NET *31 0.000666619
*CONN
*P seg3[4] O
*I *675:X O *D sky130_fd_sc_hd__buf_2
*CAP
1 seg3[4] 0.000206617
2 *675:X 0.000206617
3 seg3[4] seg3[5] 9.2876e-05
4 seg3[4] *555:A 6.76337e-05
5 seg0[1] seg3[4] 0
6 *653:A seg3[4] 9.28756e-05
*RES
1 *675:X seg3[4] 18.8741 
*END

*D_NET *32 0.000601792
*CONN
*P seg3[5] O
*I *676:X O *D sky130_fd_sc_hd__buf_2
*CAP
1 seg3[5] 0.000180222
2 *676:X 0.000180222
3 seg3[5] *633:A 4.58835e-05
4 seg3[3] seg3[5] 0.000102589
5 seg3[4] seg3[5] 9.2876e-05
*RES
1 *676:X seg3[5] 18.5706 
*END

*D_NET *33 0.000609678
*CONN
*P seg3[6] O
*I *659:LO O *D sky130_fd_sc_hd__conb_1
*CAP
1 seg3[6] 0.000257115
2 *659:LO 0.000257115
3 seg1[6] seg3[6] 9.54485e-05
*RES
1 *659:LO seg3[6] 19.4092 
*END

*D_NET *34 0.000753015
*CONN
*I *568:RESET_B I *D sky130_fd_sc_hd__dfrtp_1
*I *470:Y O *D sky130_fd_sc_hd__inv_2
*CAP
1 *568:RESET_B 0.000192224
2 *470:Y 0.000192224
3 *568:RESET_B *470:A 6.05161e-06
4 *568:RESET_B *478:A2 0.000130284
5 *568:RESET_B *621:A 0.000100823
6 *568:RESET_B *677:A 1.31235e-05
7 *568:RESET_B *156:34 5.33334e-05
8 *568:RESET_B *195:6 6.49514e-05
*RES
1 *470:Y *568:RESET_B 21.8804 
*END

*D_NET *35 0.000561383
*CONN
*I *569:RESET_B I *D sky130_fd_sc_hd__dfrtp_1
*I *533:Y O *D sky130_fd_sc_hd__inv_2
*CAP
1 *569:RESET_B 0.000164973
2 *533:Y 0.000164973
3 *569:RESET_B *477:A1 0.000121573
4 *569:RESET_B *479:B1 3.72194e-05
5 *569:RESET_B *96:54 0
6 *569:RESET_B *156:34 7.26449e-05
*RES
1 *533:Y *569:RESET_B 22.0679 
*END

*D_NET *36 0.000270229
*CONN
*I *570:RESET_B I *D sky130_fd_sc_hd__dfrtp_1
*I *534:Y O *D sky130_fd_sc_hd__inv_2
*CAP
1 *570:RESET_B 0.000102667
2 *534:Y 0.000102667
3 *570:RESET_B *481:B1 4.57445e-05
4 *570:RESET_B *564:A 0
5 *570:RESET_B *640:A 1.91512e-05
*RES
1 *534:Y *570:RESET_B 20.55 
*END

*D_NET *37 0.000419711
*CONN
*I *571:RESET_B I *D sky130_fd_sc_hd__dfrtp_1
*I *535:Y O *D sky130_fd_sc_hd__inv_2
*CAP
1 *571:RESET_B 8.23819e-05
2 *535:Y 8.23819e-05
3 *571:RESET_B *483:A3 0.000100823
4 *571:RESET_B *534:A 0.000100823
5 *571:RESET_B *197:10 5.33005e-05
*RES
1 *535:Y *571:RESET_B 20.175 
*END

*D_NET *38 0.00129515
*CONN
*I *572:RESET_B I *D sky130_fd_sc_hd__dfrtp_1
*I *536:Y O *D sky130_fd_sc_hd__inv_2
*CAP
1 *572:RESET_B 0.000346888
2 *536:Y 0.000346888
3 *572:RESET_B *488:B1 9.90431e-05
4 *572:RESET_B *536:A 0.000131439
5 *572:RESET_B *537:A 0.000273269
6 *572:RESET_B *638:A 7.03393e-05
7 *572:RESET_B *107:12 2.72859e-05
*RES
1 *536:Y *572:RESET_B 16.3446 
*END

*D_NET *39 0.000277413
*CONN
*I *573:RESET_B I *D sky130_fd_sc_hd__dfrtp_1
*I *537:Y O *D sky130_fd_sc_hd__inv_2
*CAP
1 *573:RESET_B 7.81704e-05
2 *537:Y 7.81704e-05
3 *573:RESET_B *488:A2 4.85567e-05
4 *573:RESET_B *638:A 5.24274e-05
5 *573:RESET_B *138:14 0
6 *573:RESET_B *200:10 2.00884e-05
*RES
1 *537:Y *573:RESET_B 20.1125 
*END

*D_NET *40 0.000709885
*CONN
*I *574:RESET_B I *D sky130_fd_sc_hd__dfrtp_1
*I *538:Y O *D sky130_fd_sc_hd__inv_2
*CAP
1 *574:RESET_B 0.000305212
2 *538:Y 0.000305212
3 *574:RESET_B *575:CLK 5.33334e-05
4 *574:RESET_B *575:D 3.08664e-05
5 *574:RESET_B *87:41 1.52601e-05
*RES
1 *538:Y *574:RESET_B 22.9875 
*END

*D_NET *41 0.000325623
*CONN
*I *575:RESET_B I *D sky130_fd_sc_hd__dfrtp_1
*I *539:Y O *D sky130_fd_sc_hd__inv_2
*CAP
1 *575:RESET_B 0.000151357
2 *539:Y 0.000151357
3 *575:RESET_B *575:D 2.29097e-05
*RES
1 *539:Y *575:RESET_B 11.4161 
*END

*D_NET *42 0.000297909
*CONN
*I *576:RESET_B I *D sky130_fd_sc_hd__dfrtp_1
*I *540:Y O *D sky130_fd_sc_hd__inv_2
*CAP
1 *576:RESET_B 0.000104012
2 *540:Y 0.000104012
3 *576:RESET_B *503:A 5.80706e-06
4 *576:RESET_B *576:D 5.84171e-05
5 *576:RESET_B *74:67 0
6 *576:RESET_B *87:47 0
7 *576:RESET_B *87:49 0
8 *576:RESET_B *132:26 2.56601e-05
*RES
1 *540:Y *576:RESET_B 20.55 
*END

*D_NET *43 0.00117463
*CONN
*I *577:RESET_B I *D sky130_fd_sc_hd__dfrtp_1
*I *541:Y O *D sky130_fd_sc_hd__inv_2
*CAP
1 *577:RESET_B 0.000221066
2 *541:Y 0.000221066
3 *577:RESET_B *577:CLK 1.78353e-05
4 *577:RESET_B *577:D 0.000319887
5 *577:RESET_B *663:A 0.000349019
6 *577:RESET_B *87:49 4.57538e-05
*RES
1 *541:Y *577:RESET_B 24.7196 
*END

*D_NET *44 0.00175635
*CONN
*I *578:RESET_B I *D sky130_fd_sc_hd__dfrtp_1
*I *542:Y O *D sky130_fd_sc_hd__inv_2
*CAP
1 *578:RESET_B 0.000411976
2 *542:Y 0.000411976
3 *578:RESET_B *498:A1 0
4 *578:RESET_B *499:B1 0.000125125
5 *578:RESET_B *87:12 0
6 *578:RESET_B *113:6 0.00018077
7 *578:RESET_B *132:26 6.94781e-05
8 *578:RESET_B *152:26 9.08883e-05
9 *578:RESET_B *152:32 7.32955e-05
10 *578:RESET_B *205:12 0.00029186
11 *578:RESET_B *206:14 0.000100979
*RES
1 *542:Y *578:RESET_B 28.8982 
*END

*D_NET *45 0.000625557
*CONN
*I *579:RESET_B I *D sky130_fd_sc_hd__dfrtp_1
*I *543:Y O *D sky130_fd_sc_hd__inv_2
*CAP
1 *579:RESET_B 0.000172155
2 *543:Y 0.000172155
3 *579:RESET_B *504:C 1.24368e-05
4 *579:RESET_B *91:72 0.000215509
5 *579:RESET_B *114:12 5.33005e-05
*RES
1 *543:Y *579:RESET_B 12.5589 
*END

*D_NET *46 0.000450254
*CONN
*I *580:RESET_B I *D sky130_fd_sc_hd__dfrtp_1
*I *544:Y O *D sky130_fd_sc_hd__inv_2
*CAP
1 *580:RESET_B 6.11225e-05
2 *544:Y 6.11225e-05
3 *580:RESET_B *519:B 0.000216448
4 *580:RESET_B *85:35 2.14658e-05
5 *580:RESET_B *85:37 9.00951e-05
*RES
1 *544:Y *580:RESET_B 11.4161 
*END

*D_NET *47 0.000630917
*CONN
*I *581:RESET_B I *D sky130_fd_sc_hd__dfrtp_1
*I *545:Y O *D sky130_fd_sc_hd__inv_2
*CAP
1 *581:RESET_B 0.00016565
2 *545:Y 0.00016565
3 *581:RESET_B *509:B1 1.16179e-05
4 *581:RESET_B *80:12 0.000101233
5 *581:RESET_B *154:35 0.000186765
*RES
1 *545:Y *581:RESET_B 21.7554 
*END

*D_NET *48 0.00206096
*CONN
*I *582:RESET_B I *D sky130_fd_sc_hd__dfrtp_1
*I *546:Y O *D sky130_fd_sc_hd__inv_2
*CAP
1 *582:RESET_B 0.000685606
2 *546:Y 0.000685606
3 *582:RESET_B *514:A2 5.26184e-05
4 *582:RESET_B *518:A 0
5 *582:RESET_B *546:A 0.000205429
6 *582:RESET_B *583:D 0.000402033
7 *582:RESET_B *632:A 2.96677e-05
*RES
1 *546:Y *582:RESET_B 29.55 
*END

*D_NET *49 0.000165627
*CONN
*I *583:RESET_B I *D sky130_fd_sc_hd__dfrtp_1
*I *547:Y O *D sky130_fd_sc_hd__inv_2
*CAP
1 *583:RESET_B 8.28133e-05
2 *547:Y 8.28133e-05
3 *583:RESET_B *514:A2 0
*RES
1 *547:Y *583:RESET_B 19.6393 
*END

*D_NET *50 0.00193202
*CONN
*I *584:RESET_B I *D sky130_fd_sc_hd__dfrtp_1
*I *548:Y O *D sky130_fd_sc_hd__inv_2
*CAP
1 *584:RESET_B 0.000508498
2 *548:Y 0.000508498
3 *584:RESET_B *514:A3 0.000150618
4 *584:RESET_B *514:B1 0.000315179
5 *584:RESET_B *516:A1 0.000122405
6 *584:RESET_B *548:A 0
7 *584:RESET_B *669:A 7.83659e-05
8 *584:RESET_B *150:53 0.0001315
9 *584:RESET_B *150:57 1.50087e-05
10 *584:RESET_B *154:78 5.31541e-05
11 seg0[6] *584:RESET_B 4.87953e-05
*RES
1 *548:Y *584:RESET_B 29.2286 
*END

*D_NET *51 0.000455863
*CONN
*I *585:RESET_B I *D sky130_fd_sc_hd__dfrtp_1
*I *549:Y O *D sky130_fd_sc_hd__inv_2
*CAP
1 *585:RESET_B 6.81382e-05
2 *549:Y 6.81382e-05
3 *585:RESET_B *548:A 0.000100639
4 *585:RESET_B *585:CLK 8.92153e-05
5 *585:RESET_B *585:D 0.000129732
*RES
1 *549:Y *585:RESET_B 20.5232 
*END

*D_NET *52 0.000813311
*CONN
*I *586:RESET_B I *D sky130_fd_sc_hd__dfrtp_1
*I *550:Y O *D sky130_fd_sc_hd__inv_2
*CAP
1 *586:RESET_B 0.000269823
2 *550:Y 0.000269823
3 *586:RESET_B *523:B1 3.34295e-05
4 *586:RESET_B *524:A2 5.5782e-05
5 *586:RESET_B *121:16 5.62995e-05
6 *586:RESET_B *122:10 0.000128154
*RES
1 *550:Y *586:RESET_B 24.0054 
*END

*D_NET *53 0.000704173
*CONN
*I *587:RESET_B I *D sky130_fd_sc_hd__dfrtp_1
*I *551:Y O *D sky130_fd_sc_hd__inv_2
*CAP
1 *587:RESET_B 0.000193995
2 *551:Y 0.000193995
3 *587:RESET_B *551:A 8.57023e-05
4 *587:RESET_B *156:115 0.000230482
*RES
1 *551:Y *587:RESET_B 13.0589 
*END

*D_NET *54 0.000274189
*CONN
*I *588:RESET_B I *D sky130_fd_sc_hd__dfrtp_1
*I *552:Y O *D sky130_fd_sc_hd__inv_2
*CAP
1 *588:RESET_B 8.80931e-05
2 *552:Y 8.80931e-05
3 *588:RESET_B *525:B1 0
4 *588:RESET_B *642:A 0
5 *588:RESET_B *673:A 9.80029e-05
6 *588:RESET_B *92:12 0
*RES
1 *552:Y *588:RESET_B 20.55 
*END

*D_NET *55 0.000714356
*CONN
*I *589:RESET_B I *D sky130_fd_sc_hd__dfrtp_1
*I *553:Y O *D sky130_fd_sc_hd__inv_2
*CAP
1 *589:RESET_B 0.00022198
2 *553:Y 0.00022198
3 *589:RESET_B *532:A1 0.000112418
4 *589:RESET_B *532:B1 5.71472e-05
5 *589:RESET_B *124:10 0
6 *589:RESET_B *156:115 0.000100831
*RES
1 *553:Y *589:RESET_B 22.5768 
*END

*D_NET *56 0.000578761
*CONN
*I *590:RESET_B I *D sky130_fd_sc_hd__dfrtp_1
*I *554:Y O *D sky130_fd_sc_hd__inv_2
*CAP
1 *590:RESET_B 0.000100537
2 *554:Y 0.000100537
3 *590:RESET_B *554:A 2.59355e-05
4 *590:RESET_B *675:A 0.00015134
5 *590:RESET_B *96:54 0
6 *590:RESET_B *156:115 0.000200413
*RES
1 *554:Y *590:RESET_B 21.3893 
*END

*D_NET *57 0.00167971
*CONN
*I *591:RESET_B I *D sky130_fd_sc_hd__dfrtp_1
*I *555:Y O *D sky130_fd_sc_hd__inv_2
*CAP
1 *591:RESET_B 0.000361816
2 *555:Y 0.000361816
3 *591:RESET_B *530:A2 0.00010096
4 *591:RESET_B *530:B1 0.000270236
5 *591:RESET_B *531:B1 8.79458e-05
6 *591:RESET_B *555:A 6.85604e-05
7 *591:RESET_B *621:A 0.00019506
8 *591:RESET_B *676:A 4.78056e-05
9 *591:RESET_B *125:10 0.000175512
10 *591:RESET_B *127:12 9.99644e-06
*RES
1 *555:Y *591:RESET_B 27.1482 
*END

*D_NET *58 0.000685748
*CONN
*I *592:RESET_B I *D sky130_fd_sc_hd__dfrtp_1
*I *556:Y O *D sky130_fd_sc_hd__inv_2
*CAP
1 *592:RESET_B 0.000166297
2 *556:Y 0.000166297
3 *592:RESET_B *592:D 0.000129868
4 *592:RESET_B *147:107 3.8524e-05
5 *592:RESET_B *147:109 7.83587e-05
6 *592:RESET_B *147:182 0.000106403
7 *592:RESET_B *156:52 0
*RES
1 *556:Y *592:RESET_B 22.2554 
*END

*D_NET *59 0.000517591
*CONN
*I *593:RESET_B I *D sky130_fd_sc_hd__dfrtp_1
*I *557:Y O *D sky130_fd_sc_hd__inv_2
*CAP
1 *593:RESET_B 0.000122675
2 *557:Y 0.000122675
3 *593:RESET_B *646:A 0
4 *593:RESET_B *93:12 0
5 *593:RESET_B *155:63 9.42929e-05
6 *593:RESET_B *155:100 0.000177948
*RES
1 *557:Y *593:RESET_B 21.4339 
*END

*D_NET *60 0.000397272
*CONN
*I *594:RESET_B I *D sky130_fd_sc_hd__dfrtp_1
*I *558:Y O *D sky130_fd_sc_hd__inv_2
*CAP
1 *594:RESET_B 8.64338e-05
2 *558:Y 8.64338e-05
3 *594:RESET_B *473:C 0.000142856
4 *594:RESET_B *147:107 8.15485e-05
*RES
1 *558:Y *594:RESET_B 11.8268 
*END

*D_NET *61 0.000463186
*CONN
*I *595:SET_B I *D sky130_fd_sc_hd__dfstp_2
*I *559:Y O *D sky130_fd_sc_hd__inv_2
*CAP
1 *595:SET_B 0.000134718
2 *559:Y 0.000134718
3 *595:SET_B *92:82 0.000177934
4 *595:SET_B *96:87 0
5 *595:SET_B *154:29 1.21258e-05
6 *595:SET_B *154:35 3.69047e-06
*RES
1 *559:Y *595:SET_B 21.0857 
*END

*D_NET *62 0.00128927
*CONN
*I *596:RESET_B I *D sky130_fd_sc_hd__dfrtp_4
*I *560:Y O *D sky130_fd_sc_hd__inv_2
*CAP
1 *596:RESET_B 0.000287438
2 *560:Y 0.000287438
3 *596:RESET_B *520:A3 5.88068e-05
4 *596:RESET_B *522:B1 0.000280905
5 *596:RESET_B *586:CLK 0.000261729
6 *596:RESET_B *649:A 1.21258e-05
7 *596:RESET_B *92:12 0.000100831
*RES
1 *560:Y *596:RESET_B 24.3446 
*END

*D_NET *63 0.000445214
*CONN
*I *597:RESET_B I *D sky130_fd_sc_hd__dfrtp_4
*I *561:Y O *D sky130_fd_sc_hd__inv_2
*CAP
1 *597:RESET_B 4.53801e-05
2 *561:Y 4.53801e-05
3 *597:RESET_B *561:A 0.000177227
4 *597:RESET_B *596:D 0.000177227
*RES
1 *561:Y *597:RESET_B 20.55 
*END

*D_NET *64 0.000199393
*CONN
*I *598:RESET_B I *D sky130_fd_sc_hd__dfrtp_4
*I *562:Y O *D sky130_fd_sc_hd__inv_2
*CAP
1 *598:RESET_B 9.96967e-05
2 *562:Y 9.96967e-05
3 *598:RESET_B *563:A 0
4 *598:RESET_B *93:93 0
*RES
1 *562:Y *598:RESET_B 19.9429 
*END

*D_NET *65 0.000853819
*CONN
*I *599:RESET_B I *D sky130_fd_sc_hd__dfrtp_4
*I *563:Y O *D sky130_fd_sc_hd__inv_2
*CAP
1 *599:RESET_B 0.000222415
2 *563:Y 0.000222415
3 *599:RESET_B *564:A 1.18064e-05
4 *599:RESET_B *643:A 5.33005e-05
5 *599:RESET_B *86:65 0.000310847
6 *599:RESET_B *95:94 3.30352e-05
*RES
1 *563:Y *599:RESET_B 23.3089 
*END

*D_NET *66 0.000303793
*CONN
*I *600:RESET_B I *D sky130_fd_sc_hd__dfrtp_4
*I *564:Y O *D sky130_fd_sc_hd__inv_2
*CAP
1 *600:RESET_B 0.000119397
2 *564:Y 0.000119397
3 *600:RESET_B *516:B1 2.8266e-06
4 *600:RESET_B *564:A 3.18676e-05
5 *600:RESET_B *637:A 3.0305e-05
*RES
1 *564:Y *600:RESET_B 20.175 
*END

*D_NET *67 0.000530425
*CONN
*I *601:RESET_B I *D sky130_fd_sc_hd__dfrtp_1
*I *565:Y O *D sky130_fd_sc_hd__inv_2
*CAP
1 *601:RESET_B 8.69754e-05
2 *565:Y 8.69754e-05
3 *601:RESET_B *616:A 7.83659e-05
4 *601:RESET_B *617:A 7.22594e-05
5 *601:RESET_B *91:32 5.52238e-05
6 *601:RESET_B *93:93 0.000150625
*RES
1 *565:Y *601:RESET_B 20.7821 
*END

*D_NET *68 0.0010345
*CONN
*I *602:RESET_B I *D sky130_fd_sc_hd__dfrtp_1
*I *566:Y O *D sky130_fd_sc_hd__inv_2
*CAP
1 *602:RESET_B 0.000206611
2 *566:Y 0.000206611
3 *602:RESET_B *476:A1_N 1.55885e-05
4 *602:RESET_B *566:A 1.24368e-05
5 *602:RESET_B *596:D 1.91414e-05
6 *602:RESET_B *601:D 0.000103253
7 *602:RESET_B *90:8 1.58163e-05
8 *602:RESET_B *91:20 5.58941e-05
9 *602:RESET_B *91:64 0.000126439
10 *602:RESET_B *152:22 5.33005e-05
11 *602:RESET_B *155:46 0.000173083
12 *602:RESET_B *155:57 4.35048e-05
13 *602:RESET_B *155:100 2.8266e-06
*RES
1 *566:Y *602:RESET_B 23.8089 
*END

*D_NET *69 0.0011634
*CONN
*I *603:RESET_B I *D sky130_fd_sc_hd__dfrtp_1
*I *567:Y O *D sky130_fd_sc_hd__inv_2
*CAP
1 *603:RESET_B 0.000248823
2 *567:Y 0.000248823
3 *603:RESET_B *473:A_N 4.70821e-05
4 *603:RESET_B *474:C 1.98839e-05
5 *603:RESET_B *475:A2 9.90431e-05
6 *603:RESET_B *567:A 5.33978e-05
7 *603:RESET_B *655:A 0.000314132
8 *603:RESET_B *83:6 8.66063e-05
9 *603:RESET_B *127:14 1.21389e-05
10 *603:RESET_B *150:15 3.34672e-05
*RES
1 *567:Y *603:RESET_B 24.2196 
*END

*D_NET *70 0.000599638
*CONN
*I *601:D I *D sky130_fd_sc_hd__dfrtp_1
*I *476:X O *D sky130_fd_sc_hd__o2bb2a_1
*CAP
1 *601:D 0.000154168
2 *476:X 0.000154168
3 *601:D *596:D 0.000109012
4 *601:D *601:CLK 6.57032e-05
5 *601:D *155:46 1.33343e-05
6 *602:RESET_B *601:D 0.000103253
*RES
1 *476:X *601:D 30.7071 
*END

*D_NET *71 0.000597573
*CONN
*I *602:D I *D sky130_fd_sc_hd__dfrtp_1
*I *472:X O *D sky130_fd_sc_hd__a21o_1
*CAP
1 *602:D 0.00023246
2 *472:X 0.00023246
3 *602:D *472:B1 1.92905e-05
4 *602:D *476:B1 0
5 *602:D *93:93 0.000113362
*RES
1 *472:X *602:D 32.2071 
*END

*D_NET *72 0.00969802
*CONN
*I *613:A I *D sky130_fd_sc_hd__buf_2
*I *501:A1 I *D sky130_fd_sc_hd__a31o_1
*I *499:A1 I *D sky130_fd_sc_hd__a31o_1
*I *468:Y O *D sky130_fd_sc_hd__inv_2
*CAP
1 *613:A 0.000931086
2 *501:A1 0.000162155
3 *499:A1 0.000208009
4 *468:Y 0.000479906
5 *72:34 0.00104673
6 *72:10 0.00208756
7 *499:A1 *497:B1 0.000119745
8 *499:A1 *74:18 0.000195192
9 *499:A1 *74:33 0.00018301
10 *501:A1 *500:A1 0
11 *501:A1 *500:B1 0
12 *501:A1 *501:A3 9.83388e-05
13 *501:A1 *501:B1 5.49489e-05
14 *501:A1 *502:A1 0.000101227
15 *501:A1 *148:136 8.83401e-05
16 *501:A1 *152:24 2.36643e-05
17 *613:A *517:A1 3.80953e-06
18 *613:A *640:A 5.33334e-05
19 *613:A *96:8 0.000157803
20 *613:A *96:119 0.000151619
21 *72:10 *468:A 4.87854e-05
22 *72:10 *515:A2 0.000110427
23 *72:10 *515:B1 0.000352407
24 *72:10 *517:A1 5.19842e-06
25 *72:10 *600:CLK 3.61487e-05
26 *72:10 *211:10 0.000187042
27 *72:10 *212:8 5.33005e-05
28 *72:34 *497:B1 0
29 *72:34 *595:D 0.000314188
30 *72:34 *599:D 0.000128146
31 *72:34 *74:18 9.41642e-05
32 *72:34 *80:12 0.000321265
33 *72:34 *80:16 0.000225785
34 *72:34 *80:20 0.000381726
35 *72:34 *96:32 0.000525982
36 *72:34 *96:87 0.000665432
37 *72:34 *148:136 0.000101545
*RES
1 *468:Y *72:10 18.6036 
2 *72:10 *72:34 33.3571 
3 *72:34 *499:A1 14.9071 
4 *72:34 *501:A1 22.1036 
5 *72:10 *613:A 23.8536 
*END

*D_NET *73 0.0106201
*CONN
*I *485:A2 I *D sky130_fd_sc_hd__a31o_1
*I *487:A2 I *D sky130_fd_sc_hd__a31o_1
*I *612:A I *D sky130_fd_sc_hd__buf_2
*I *469:Y O *D sky130_fd_sc_hd__inv_2
*CAP
1 *485:A2 0
2 *487:A2 0.000349532
3 *612:A 0
4 *469:Y 0.000387848
5 *73:33 0.00177026
6 *73:14 0.00180858
7 *487:A2 *488:A1 3.18676e-05
8 *487:A2 *488:A2 0
9 *487:A2 *638:A 0
10 *487:A2 *96:119 0.000315887
11 *487:A2 *107:12 0
12 *487:A2 *148:62 0.00012458
13 *487:A2 *148:75 1.52978e-05
14 *73:14 *497:A1 2.06093e-05
15 *73:14 *497:B1 0.000102362
16 *73:14 *662:A 0.000137505
17 *73:14 *80:12 0
18 *73:14 *91:84 3.79467e-05
19 *73:14 *93:41 0.00010326
20 *73:14 *94:37 0.000142157
21 *73:14 *147:14 0.000185124
22 *73:33 *474:B 1.39726e-05
23 *73:33 *478:A2 0
24 *73:33 *479:A1 4.61329e-05
25 *73:33 *479:A3 2.20608e-05
26 *73:33 *488:A2 0
27 *73:33 *490:A 5.66157e-05
28 *73:33 *497:A1 0.000297986
29 *73:33 *506:D 8.25843e-06
30 *73:33 *529:A3 0.000227021
31 *73:33 *545:A 0.00015362
32 *73:33 *567:A 2.89016e-05
33 *73:33 *590:CLK 5.7616e-05
34 *73:33 *614:A 0.000785329
35 *73:33 *80:12 0.000323725
36 *73:33 *96:54 0.000173461
37 *73:33 *107:12 0
38 *73:33 *147:182 1.90936e-05
39 *73:33 *148:75 0.000527956
40 *73:33 *148:117 0.00232815
41 seg0[5] *487:A2 1.74352e-05
*RES
1 *469:Y *73:14 27.175 
2 *73:14 *612:A 9.3 
3 *73:14 *73:33 48.7143 
4 *73:33 *487:A2 21.8536 
5 *73:33 *485:A2 13.8 
*END

*D_NET *74 0.0106165
*CONN
*I *472:A2 I *D sky130_fd_sc_hd__a21o_1
*I *476:A2_N I *D sky130_fd_sc_hd__o2bb2a_1
*I *502:A2 I *D sky130_fd_sc_hd__a21o_1
*I *494:A2 I *D sky130_fd_sc_hd__a21o_1
*I *492:A2 I *D sky130_fd_sc_hd__a21o_1
*I *496:A2 I *D sky130_fd_sc_hd__a21o_1
*I *498:A2 I *D sky130_fd_sc_hd__a21o_1
*I *500:A2 I *D sky130_fd_sc_hd__a21o_1
*I *471:X O *D sky130_fd_sc_hd__and4bb_2
*CAP
1 *472:A2 0.000125664
2 *476:A2_N 7.9723e-05
3 *502:A2 0
4 *494:A2 0.000201351
5 *492:A2 0.00014748
6 *496:A2 0
7 *498:A2 0.000348607
8 *500:A2 0
9 *471:X 6.25638e-05
10 *74:96 0.000385423
11 *74:67 0.000961487
12 *74:52 0.00080171
13 *74:33 0.00105717
14 *74:18 0.000629442
15 *74:12 0.000613735
16 *74:6 0.000746399
17 *472:A2 *472:A1 0.000111048
18 *472:A2 *566:A 1.04232e-05
19 *476:A2_N *566:A 5.33005e-05
20 *476:A2_N *157:47 5.74499e-06
21 *492:A2 *492:A1 0.000342488
22 *492:A2 *492:B1 8.36054e-05
23 *492:A2 *87:37 0.000148903
24 *494:A2 *491:B1 9.60939e-05
25 *494:A2 *631:A 0.000304153
26 *498:A2 *498:A1 8.08022e-05
27 *498:A2 *503:A 5.80706e-06
28 *498:A2 *503:C 0
29 *498:A2 *577:D 0
30 *498:A2 *578:D 2.61853e-05
31 *498:A2 *205:12 5.39629e-06
32 *74:6 *471:B_N 8.76257e-05
33 *74:12 *471:B_N 0.000177821
34 *74:12 *502:B1 0.000185643
35 *74:12 *598:D 9.47613e-05
36 *74:12 *646:A 0.000309273
37 *74:12 *152:14 5.7661e-06
38 *74:18 *502:B1 7.05409e-05
39 *74:18 *206:14 1.59373e-05
40 *74:33 *497:B1 2.44609e-05
41 *74:33 *499:A3 5.33005e-05
42 *74:33 *502:B1 1.17091e-05
43 *74:33 *503:C 4.7024e-05
44 *74:33 *663:A 0.000354105
45 *74:33 *93:41 0.000117369
46 *74:33 *112:6 7.20621e-05
47 *74:33 *206:14 5.65955e-05
48 *74:52 *503:A 0
49 *74:52 *503:C 4.78056e-05
50 *74:52 *93:41 9.87865e-05
51 *74:67 *491:A2 0
52 *74:67 *491:A3 0.000224583
53 *74:67 *491:B1 1.02936e-05
54 *74:67 *503:A 0
55 *74:67 *576:D 0
56 *74:67 *683:A 5.39629e-06
57 *74:67 *93:41 1.19309e-05
58 *74:96 *476:B1 0.000161848
59 *74:96 *614:A 7.6644e-05
60 *74:96 *615:A 0.000388146
61 *499:A1 *74:18 0.000195192
62 *499:A1 *74:33 0.00018301
63 *576:RESET_B *74:67 0
64 *72:34 *74:18 9.41642e-05
*RES
1 *471:X *74:6 10.2464 
2 *74:6 *74:12 9.60714 
3 *74:12 *74:18 3.44643 
4 *74:18 *500:A2 9.3 
5 *74:18 *74:33 16.6607 
6 *74:33 *498:A2 27.8714 
7 *74:33 *74:52 4.07143 
8 *74:52 *496:A2 13.8 
9 *74:52 *74:67 13.4286 
10 *74:67 *492:A2 23.2821 
11 *74:67 *494:A2 13.9429 
12 *74:12 *502:A2 9.3 
13 *74:6 *74:96 14.8929 
14 *74:96 *476:A2_N 10.2464 
15 *74:96 *472:A2 11.925 
*END

*D_NET *75 0.00051672
*CONN
*I *475:B1 I *D sky130_fd_sc_hd__a21o_1
*I *473:X O *D sky130_fd_sc_hd__and4b_1
*CAP
1 *475:B1 0.000133927
2 *473:X 0.000133927
3 *475:B1 *476:B1 5.52302e-05
4 *475:B1 *92:126 0.000144773
5 *475:B1 *93:93 0
6 *475:B1 *150:21 4.88637e-05
*RES
1 *473:X *475:B1 30.35 
*END

*D_NET *76 0.00132079
*CONN
*I *655:A I *D sky130_fd_sc_hd__clkbuf_2
*I *475:A2 I *D sky130_fd_sc_hd__a21o_1
*I *474:Y O *D sky130_fd_sc_hd__nor4b_1
*CAP
1 *655:A 7.11167e-05
2 *475:A2 0.000149028
3 *474:Y 0
4 *76:4 0.000220145
5 *475:A2 *474:C 0.00013248
6 *475:A2 *93:93 9.77277e-05
7 *475:A2 *147:182 0
8 *475:A2 *150:21 0
9 *655:A *474:C 8.76257e-05
10 *655:A *127:12 8.07313e-05
11 *655:A *127:14 6.87574e-05
12 *603:RESET_B *475:A2 9.90431e-05
13 *603:RESET_B *655:A 0.000314132
*RES
1 *474:Y *76:4 9.3 
2 *76:4 *475:A2 22.1036 
3 *76:4 *655:A 12.7107 
*END

*D_NET *77 0.00240126
*CONN
*I *476:B1 I *D sky130_fd_sc_hd__o2bb2a_1
*I *475:X O *D sky130_fd_sc_hd__a21o_1
*CAP
1 *476:B1 0.000934221
2 *475:X 0.000934221
3 *476:B1 *473:A_N 3.90513e-05
4 *476:B1 *473:B 2.04825e-05
5 *476:B1 *603:D 5.66157e-05
6 *476:B1 *614:A 0
7 *476:B1 *615:A 0
8 *476:B1 *84:10 0
9 *476:B1 *84:36 0
10 *476:B1 *92:126 2.87584e-05
11 *476:B1 *93:93 0
12 *476:B1 *127:44 0
13 *476:B1 *127:57 0
14 *476:B1 *150:21 9.90431e-05
15 *476:B1 *152:118 7.17836e-05
16 *475:B1 *476:B1 5.52302e-05
17 *602:D *476:B1 0
18 *74:96 *476:B1 0.000161848
*RES
1 *475:X *476:B1 44.4214 
*END

*D_NET *78 0.00165062
*CONN
*I *490:C I *D sky130_fd_sc_hd__and3_1
*I *489:X O *D sky130_fd_sc_hd__and4_1
*CAP
1 *490:C 0.000381409
2 *489:X 0.000381409
3 *490:C *483:B1 9.3745e-05
4 *490:C *484:A1 4.13477e-05
5 *490:C *489:D 3.55387e-05
6 *490:C *634:A 0.000125724
7 *490:C *681:A 5.52238e-05
8 *490:C *86:16 0.000124713
9 *490:C *86:99 5.01213e-05
10 *490:C *95:94 5.33005e-05
11 *490:C *96:54 1.95435e-05
12 *490:C *146:12 0.00028855
13 *490:C *148:75 0
*RES
1 *489:X *490:C 36.5107 
*END

*D_NET *79 0.0030329
*CONN
*I *504:C I *D sky130_fd_sc_hd__and3_1
*I *503:X O *D sky130_fd_sc_hd__and4_1
*CAP
1 *504:C 0.000990923
2 *503:X 0.000990923
3 *504:C *498:A1 0.000479652
4 *504:C *501:B1 9.50968e-06
5 *504:C *503:D 0.000114473
6 *504:C *504:A 4.66203e-05
7 *504:C *504:B 7.6644e-05
8 *504:C *91:72 2.92603e-05
9 *504:C *96:87 2.0954e-05
10 *504:C *148:136 0.000173083
11 *504:C *206:14 8.84193e-05
12 *579:RESET_B *504:C 1.24368e-05
*RES
1 *503:X *504:C 41.6714 
*END

*D_NET *80 0.0100829
*CONN
*I *509:A2 I *D sky130_fd_sc_hd__a21o_1
*I *511:A2 I *D sky130_fd_sc_hd__a21o_1
*I *507:A2 I *D sky130_fd_sc_hd__a21o_1
*I *513:A2 I *D sky130_fd_sc_hd__a21o_1
*I *517:A2 I *D sky130_fd_sc_hd__a21o_1
*I *515:A2 I *D sky130_fd_sc_hd__a21o_1
*I *506:X O *D sky130_fd_sc_hd__and4bb_2
*CAP
1 *509:A2 6.38001e-05
2 *511:A2 0.000190965
3 *507:A2 0
4 *513:A2 2.39758e-05
5 *517:A2 3.65003e-05
6 *515:A2 0.000351212
7 *506:X 0.000816597
8 *80:55 0.000802688
9 *80:20 0.00061584
10 *80:16 0.000434506
11 *80:14 0.000869515
12 *80:12 0.000955787
13 *509:A2 *595:CLK 5.65955e-05
14 *509:A2 *92:86 9.73704e-05
15 *511:A2 *505:A1 5.54856e-05
16 *511:A2 *505:A2 5.7133e-05
17 *511:A2 *507:A1 0.00014183
18 *511:A2 *507:B1 0.000107893
19 *511:A2 *511:A1 0
20 *511:A2 *666:A 1.33343e-05
21 *511:A2 *207:8 1.07719e-05
22 *513:A2 *94:12 5.49489e-05
23 *515:A2 *514:A3 5.33005e-05
24 *515:A2 *515:B1 0.000115554
25 *515:A2 *517:A1 9.75943e-05
26 *515:A2 *95:62 9.41642e-05
27 *515:A2 *154:78 0.000141729
28 *517:A2 *600:CLK 5.33005e-05
29 *80:12 *474:B 4.38128e-05
30 *80:12 *506:A_N 5.71472e-05
31 *80:12 *508:B1 1.9774e-05
32 *80:12 *545:A 1.33343e-05
33 *80:12 *595:D 9.25014e-06
34 *80:12 *614:A 0.000117621
35 *80:14 *595:D 0.00012401
36 *80:16 *595:D 0.000196999
37 *80:16 *85:14 0
38 *80:16 *85:33 0
39 *80:16 *85:111 0.000231249
40 *80:20 *585:CLK 7.49952e-05
41 *80:20 *599:D 0.000129868
42 *80:20 *85:111 0.000103732
43 *80:20 *85:117 0.000342471
44 *80:20 *96:32 4.25544e-05
45 *80:55 *507:B1 0.00018077
46 *80:55 *508:A2 2.08721e-05
47 *80:55 *508:A3 0.000214162
48 *80:55 *594:CLK 0.000142152
49 *80:55 *666:A 8.56752e-05
50 *80:55 *85:14 0.000140088
51 *80:55 *147:107 1.57848e-05
52 *581:RESET_B *80:12 0.000101233
53 *72:10 *515:A2 0.000110427
54 *72:34 *80:12 0.000321265
55 *72:34 *80:16 0.000225785
56 *72:34 *80:20 0.000381726
57 *73:14 *80:12 0
58 *73:33 *80:12 0.000323725
*RES
1 *506:X *80:12 30.2286 
2 *80:12 *80:14 1.64286 
3 *80:14 *80:16 5.58929 
4 *80:16 *80:20 12.5179 
5 *80:20 *515:A2 16.8357 
6 *80:20 *517:A2 10.2643 
7 *80:16 *513:A2 14.3357 
8 *80:14 *80:55 14.1071 
9 *80:55 *507:A2 9.3 
10 *80:55 *511:A2 23.2107 
11 *80:12 *509:A2 15.5679 
*END

*D_NET *81 0.00318045
*CONN
*I *519:C I *D sky130_fd_sc_hd__and3_1
*I *518:X O *D sky130_fd_sc_hd__and4_1
*CAP
1 *519:C 0.00134279
2 *518:X 0.00134279
3 *519:C *518:C 8.6229e-06
4 *519:C *519:B 0.000105682
5 *519:C *580:D 4.46186e-06
6 *519:C *594:D 0
7 *519:C *667:A 6.04072e-05
8 *519:C *85:48 0.000126535
9 *519:C *207:8 6.04072e-05
10 *519:C *209:10 0.000128753
*RES
1 *518:X *519:C 41.9676 
*END

*D_NET *82 0.00843368
*CONN
*I *522:A2 I *D sky130_fd_sc_hd__a21o_1
*I *526:A2 I *D sky130_fd_sc_hd__a21o_1
*I *524:A2 I *D sky130_fd_sc_hd__a21o_1
*I *532:A2 I *D sky130_fd_sc_hd__a21o_1
*I *530:A2 I *D sky130_fd_sc_hd__a21o_1
*I *528:A2 I *D sky130_fd_sc_hd__a21o_1
*I *521:X O *D sky130_fd_sc_hd__and4b_2
*CAP
1 *522:A2 0.000117653
2 *526:A2 0.000131285
3 *524:A2 0.000751554
4 *532:A2 2.36895e-05
5 *530:A2 0.000352684
6 *528:A2 3.82418e-05
7 *521:X 0.000166209
8 *82:66 0.000534048
9 *82:42 0.000832199
10 *82:25 0.000946296
11 *82:12 0.000757745
12 *82:8 0.000634166
13 *522:A2 *522:B1 2.8266e-06
14 *522:A2 *525:A1 5.52238e-05
15 *522:A2 *526:B1 8.47107e-05
16 *522:A2 *88:80 5.52238e-05
17 *522:A2 *157:90 0
18 *524:A2 *523:B1 0
19 *524:A2 *524:A1 5.52302e-05
20 *524:A2 *524:B1 0.000125731
21 *524:A2 *532:B1 5.52302e-05
22 *524:A2 *621:A 7.92975e-05
23 *524:A2 *156:115 0
24 *526:A2 *526:B1 0.000225609
25 *526:A2 *608:A 9.90431e-05
26 *530:A2 *529:A3 6.05161e-06
27 *530:A2 *530:A1 0.000132524
28 *530:A2 *590:D 5.52302e-05
29 *530:A2 *621:A 0.000184307
30 *530:A2 *127:12 1.74352e-05
31 *530:A2 *156:115 0.000313651
32 *530:A2 *157:10 0.000125899
33 *532:A2 *532:B1 5.52238e-05
34 *82:8 *528:B1 0
35 *82:8 *88:22 3.34366e-05
36 *82:8 *94:117 0
37 *82:8 *151:27 0
38 *82:8 *151:31 0
39 *82:8 *153:36 0
40 *82:12 *589:D 0.000144773
41 *82:12 *88:35 0.000167435
42 *82:25 *531:B1 2.55516e-05
43 *82:25 *591:D 0.000126629
44 *82:25 *88:35 8.25843e-06
45 *82:42 *156:115 7.4826e-05
46 *82:42 *157:10 7.92879e-05
47 *82:66 *526:B1 1.52978e-05
48 *82:66 *528:B1 0
49 *82:66 *589:D 6.97972e-05
50 *82:66 *88:18 0.000177941
51 *82:66 *88:22 0.000166983
52 *82:66 *91:32 5.93786e-05
53 *82:66 *153:36 0
54 *82:66 *157:90 0
55 seg3[3] *524:A2 0.000113122
56 *586:RESET_B *524:A2 5.5782e-05
57 *591:RESET_B *530:A2 0.00010096
*RES
1 *521:X *82:8 16.3536 
2 *82:8 *82:12 8.73214 
3 *82:12 *528:A2 10.0321 
4 *82:12 *82:25 11.2143 
5 *82:25 *530:A2 24.5321 
6 *82:25 *82:42 6.44643 
7 *82:42 *532:A2 9.83571 
8 *82:42 *524:A2 33.3893 
9 *82:8 *82:66 7.10714 
10 *82:66 *526:A2 16.8 
11 *82:66 *522:A2 16.5857 
*END

*D_NET *83 0.00477539
*CONN
*I *521:A_N I *D sky130_fd_sc_hd__and4b_2
*I *471:B_N I *D sky130_fd_sc_hd__and4bb_2
*I *506:B_N I *D sky130_fd_sc_hd__and4bb_2
*I *474:C I *D sky130_fd_sc_hd__nor4b_1
*I *473:A_N I *D sky130_fd_sc_hd__and4b_1
*I *603:Q O *D sky130_fd_sc_hd__dfrtp_1
*CAP
1 *521:A_N 0
2 *471:B_N 0.000248114
3 *506:B_N 0
4 *474:C 7.56121e-05
5 *473:A_N 0.000500715
6 *603:Q 6.3976e-05
7 *83:49 0.000415344
8 *83:36 0.000244829
9 *83:23 0.000153211
10 *83:6 0.000564691
11 *471:B_N *471:C 0.000416837
12 *471:B_N *616:A 0.00014285
13 *471:B_N *152:14 1.98839e-05
14 *473:A_N *473:B 0.000125731
15 *473:A_N *473:C 2.44318e-05
16 *473:A_N *603:D 6.38892e-05
17 *473:A_N *84:10 9.18446e-05
18 *473:A_N *91:149 5.52238e-05
19 *473:A_N *127:14 2.27812e-05
20 *473:A_N *127:20 2.98161e-05
21 *473:A_N *150:35 9.90367e-05
22 *474:C *474:B 0
23 *474:C *93:93 8.07879e-05
24 *474:C *127:14 0.000229456
25 *83:36 *93:93 0.000114045
26 *83:49 *616:A 7.25785e-05
27 *83:49 *93:93 0.000227797
28 *83:49 *151:31 1.37292e-05
29 *475:A2 *474:C 0.00013248
30 *476:B1 *473:A_N 3.90513e-05
31 *603:RESET_B *473:A_N 4.70821e-05
32 *603:RESET_B *474:C 1.98839e-05
33 *603:RESET_B *83:6 8.66063e-05
34 *655:A *474:C 8.76257e-05
35 *74:6 *471:B_N 8.76257e-05
36 *74:12 *471:B_N 0.000177821
*RES
1 *603:Q *83:6 10.2464 
2 *83:6 *473:A_N 27.05 
3 *83:6 *83:23 4.5 
4 *83:23 *474:C 17.0143 
5 *83:23 *83:36 1.64286 
6 *83:36 *506:B_N 13.8 
7 *83:36 *83:49 8.19643 
8 *83:49 *471:B_N 15.5857 
9 *83:49 *521:A_N 9.3 
*END

*D_NET *84 0.010767
*CONN
*I *608:A I *D sky130_fd_sc_hd__clkbuf_16
*I *607:A I *D sky130_fd_sc_hd__clkbuf_16
*I *606:A I *D sky130_fd_sc_hd__clkbuf_16
*I *605:A I *D sky130_fd_sc_hd__clkbuf_16
*I *604:X O *D sky130_fd_sc_hd__clkbuf_16
*CAP
1 *608:A 0.000242109
2 *607:A 0.000551488
3 *606:A 0.000363356
4 *605:A 0.00063917
5 *604:X 0
6 *84:36 0.00114412
7 *84:10 0.00129772
8 *84:6 0.000645721
9 *605:A *595:D 0.00024426
10 *605:A *618:A 5.52302e-05
11 *605:A *85:14 3.08664e-05
12 *605:A *85:111 4.48647e-05
13 *605:A *96:36 0.000619931
14 *605:A *96:54 3.82641e-05
15 *605:A *147:69 5.84661e-05
16 *605:A *147:107 0.00020943
17 *605:A *150:43 2.42516e-05
18 *605:A *150:97 3.1367e-05
19 *606:A *562:A 0.000142856
20 *606:A *93:93 5.9483e-05
21 *606:A *96:54 0.000301092
22 *606:A *147:109 7.79781e-06
23 *606:A *156:58 0.000149911
24 *607:A *493:A1 0.000178847
25 *607:A *493:A2 1.38323e-05
26 *607:A *493:B1 5.33005e-05
27 *607:A *660:A 5.71472e-05
28 *607:A *92:82 8.25843e-06
29 *607:A *148:140 5.52238e-05
30 *608:A *526:B1 6.71657e-05
31 *608:A *588:D 0.000363837
32 *608:A *615:A 0.000142856
33 *608:A *151:12 8.71761e-05
34 *84:10 *473:B 0
35 *84:10 *91:149 9.87983e-06
36 *84:10 *154:21 0.000104236
37 *84:10 *155:46 0.00060101
38 *84:36 *596:D 0.000482884
39 *84:36 *614:A 0.000307871
40 *84:36 *615:A 0.000642318
41 *84:36 *152:22 0.000220441
42 *84:36 *155:46 0.000278089
43 *473:A_N *84:10 9.18446e-05
44 *476:B1 *84:10 0
45 *476:B1 *84:36 0
46 *526:A2 *608:A 9.90431e-05
*RES
1 *604:X *84:6 13.8 
2 *84:6 *84:10 13.4286 
3 *84:10 *605:A 25.05 
4 *84:10 *606:A 27.2464 
5 *84:6 *84:36 17.9821 
6 *84:36 *607:A 17.6393 
7 *84:36 *608:A 15.9964 
*END

*D_NET *85 0.0106678
*CONN
*I *599:CLK I *D sky130_fd_sc_hd__dfrtp_4
*I *600:CLK I *D sky130_fd_sc_hd__dfrtp_4
*I *585:CLK I *D sky130_fd_sc_hd__dfrtp_1
*I *595:CLK I *D sky130_fd_sc_hd__dfstp_2
*I *581:CLK I *D sky130_fd_sc_hd__dfrtp_1
*I *583:CLK I *D sky130_fd_sc_hd__dfrtp_1
*I *584:CLK I *D sky130_fd_sc_hd__dfrtp_1
*I *582:CLK I *D sky130_fd_sc_hd__dfrtp_1
*I *580:CLK I *D sky130_fd_sc_hd__dfrtp_1
*I *594:CLK I *D sky130_fd_sc_hd__dfrtp_1
*I *605:X O *D sky130_fd_sc_hd__clkbuf_16
*CAP
1 *599:CLK 0
2 *600:CLK 4.04887e-05
3 *585:CLK 0.000643635
4 *595:CLK 6.67849e-05
5 *581:CLK 7.02942e-05
6 *583:CLK 0
7 *584:CLK 0.000486366
8 *582:CLK 3.46459e-05
9 *580:CLK 8.41164e-05
10 *594:CLK 7.8372e-05
11 *605:X 0
12 *85:117 0.000898193
13 *85:111 0.000549591
14 *85:61 0.000613694
15 *85:48 0.000541267
16 *85:37 0.000788933
17 *85:35 0.000574168
18 *85:33 0.000476751
19 *85:14 0.00052294
20 *85:4 0.000548473
21 *580:CLK *580:D 6.05161e-06
22 *581:CLK *581:D 1.69115e-05
23 *581:CLK *666:A 0.000125731
24 *581:CLK *93:41 0.000173097
25 *584:CLK *547:A 4.79137e-05
26 *585:CLK *516:A3 1.9774e-05
27 *585:CLK *517:B1 1.73945e-05
28 *585:CLK *585:D 4.45363e-05
29 *585:CLK *96:32 3.07075e-06
30 *594:CLK *508:A3 0
31 *595:CLK *508:A3 0.00011105
32 *595:CLK *508:B1 0.000139949
33 *595:CLK *92:86 1.02937e-05
34 *85:14 *594:D 6.27272e-06
35 *85:14 *147:107 5.64052e-05
36 *85:14 *150:43 0
37 *85:33 *508:A3 8.449e-05
38 *85:33 *508:B1 5.79582e-06
39 *85:33 *509:B1 1.41642e-05
40 *85:33 *154:47 1.15916e-05
41 *85:35 *508:A3 5.33005e-05
42 *85:35 *508:B1 7.32756e-05
43 *85:35 *519:B 8.43535e-06
44 *85:35 *626:A 0.000200891
45 *85:35 *154:47 0.000115838
46 *85:35 *208:16 0.00027825
47 *85:37 *505:B1 9.3111e-05
48 *85:37 *519:B 0.000148167
49 *85:37 *580:D 1.98839e-05
50 *85:37 *626:A 1.98839e-05
51 *85:48 *518:A 0
52 *85:48 *580:D 0.000128154
53 *85:48 *209:10 0
54 *85:111 *518:C 0
55 *85:111 *518:D 0
56 *85:117 *517:B1 2.58081e-05
57 *85:117 *518:D 0
58 seg2[3] *85:48 5.7903e-06
59 *509:A2 *595:CLK 5.65955e-05
60 *517:A2 *600:CLK 5.33005e-05
61 *519:C *85:48 0.000126535
62 *580:RESET_B *85:35 2.14658e-05
63 *580:RESET_B *85:37 9.00951e-05
64 *585:RESET_B *585:CLK 8.92153e-05
65 *605:A *85:14 3.08664e-05
66 *605:A *85:111 4.48647e-05
67 *72:10 *600:CLK 3.61487e-05
68 *80:16 *85:14 0
69 *80:16 *85:33 0
70 *80:16 *85:111 0.000231249
71 *80:20 *585:CLK 7.49952e-05
72 *80:20 *85:111 0.000103732
73 *80:20 *85:117 0.000342471
74 *80:55 *594:CLK 0.000142152
75 *80:55 *85:14 0.000140088
*RES
1 *605:X *85:4 9.3 
2 *85:4 *85:14 13.1429 
3 *85:14 *594:CLK 11.0857 
4 *85:14 *85:33 12.3214 
5 *85:33 *85:35 5.46429 
6 *85:35 *85:37 7.10714 
7 *85:37 *580:CLK 10.6571 
8 *85:37 *85:48 12.3661 
9 *85:48 *582:CLK 14.6125 
10 *85:48 *85:61 2.40179 
11 *85:61 *584:CLK 22.0679 
12 *85:61 *583:CLK 13.8 
13 *85:35 *581:CLK 20.55 
14 *85:33 *595:CLK 11.8893 
15 *85:4 *85:111 11.6964 
16 *85:111 *85:117 5.33929 
17 *85:117 *585:CLK 22.2464 
18 *85:117 *600:CLK 14.7643 
19 *85:111 *599:CLK 13.8 
*END

*D_NET *86 0.00989291
*CONN
*I *569:CLK I *D sky130_fd_sc_hd__dfrtp_1
*I *592:CLK I *D sky130_fd_sc_hd__dfrtp_1
*I *568:CLK I *D sky130_fd_sc_hd__dfrtp_1
*I *609:A I *D sky130_fd_sc_hd__clkbuf_4
*I *571:CLK I *D sky130_fd_sc_hd__dfrtp_1
*I *603:CLK I *D sky130_fd_sc_hd__dfrtp_1
*I *598:CLK I *D sky130_fd_sc_hd__dfrtp_4
*I *573:CLK I *D sky130_fd_sc_hd__dfrtp_1
*I *570:CLK I *D sky130_fd_sc_hd__dfrtp_1
*I *572:CLK I *D sky130_fd_sc_hd__dfrtp_1
*I *606:X O *D sky130_fd_sc_hd__clkbuf_16
*CAP
1 *569:CLK 6.71205e-05
2 *592:CLK 0
3 *568:CLK 8.42053e-05
4 *609:A 0
5 *571:CLK 2.23854e-05
6 *603:CLK 0.000297539
7 *598:CLK 0.000111733
8 *573:CLK 4.84876e-05
9 *570:CLK 0.000137476
10 *572:CLK 0
11 *606:X 0.000165028
12 *86:116 0.000159531
13 *86:99 0.000276014
14 *86:65 0.000690154
15 *86:59 0.000883618
16 *86:39 0.000343263
17 *86:26 0.000256381
18 *86:20 0.000725551
19 *86:16 0.000236917
20 *86:10 0.000455223
21 *568:CLK *490:A 2.89114e-05
22 *568:CLK *490:B 5.90774e-05
23 *568:CLK *96:54 0.000149368
24 *568:CLK *156:52 9.90431e-05
25 *570:CLK *483:A3 5.52302e-05
26 *570:CLK *483:B1 0.000144773
27 *570:CLK *570:D 0.000262504
28 *570:CLK *680:A 2.61099e-05
29 *570:CLK *148:49 2.44318e-05
30 *573:CLK *483:B1 4.18895e-05
31 *573:CLK *148:49 2.14658e-05
32 *598:CLK *641:A 1.3701e-05
33 *598:CLK *94:10 0.000275341
34 *603:CLK *473:C 0.000100831
35 *603:CLK *598:D 0.000249491
36 *603:CLK *91:20 0.000177234
37 *603:CLK *155:21 0.000146474
38 *603:CLK *155:46 0.00025718
39 *86:10 *94:100 0.000178847
40 *86:16 *482:A2 9.92409e-05
41 *86:16 *634:A 9.25014e-06
42 *86:16 *147:109 0
43 *86:16 *197:10 5.33005e-05
44 *86:16 *198:12 5.33433e-05
45 *86:20 *147:109 0.000116481
46 *86:20 *197:10 0.000101545
47 *86:26 *570:D 0.000150625
48 *86:26 *96:119 2.89016e-05
49 *86:26 *147:109 0.000247771
50 *86:26 *197:10 9.54385e-05
51 *86:39 *483:B1 0.000196269
52 *86:39 *570:D 3.75052e-05
53 *86:39 *572:D 8.25512e-05
54 *86:39 *96:119 2.77289e-05
55 *86:59 *571:D 0.000219424
56 *86:59 *95:94 1.40131e-05
57 *86:65 *564:A 0.000103267
58 *86:65 *598:D 2.19684e-05
59 *86:65 *95:94 2.65105e-05
60 *86:65 *155:21 0.00029216
61 *86:99 *146:12 1.46624e-05
62 *86:99 *147:109 0
63 *86:116 *592:D 4.57445e-05
64 *86:116 *146:12 6.8646e-06
65 *86:116 *147:109 0
66 *86:116 *156:52 9.01334e-05
67 *490:C *86:16 0.000124713
68 *490:C *86:99 5.01213e-05
69 *599:RESET_B *86:65 0.000310847
*RES
1 *606:X *86:10 16.8179 
2 *86:10 *86:16 9.42857 
3 *86:16 *86:20 6.14286 
4 *86:20 *86:26 8.19643 
5 *86:26 *572:CLK 9.3 
6 *86:26 *86:39 12.9107 
7 *86:39 *570:CLK 13.1214 
8 *86:39 *573:CLK 10.2464 
9 *86:20 *86:59 12.0357 
10 *86:59 *86:65 12.0714 
11 *86:65 *598:CLK 16.8179 
12 *86:65 *603:CLK 23.0321 
13 *86:59 *571:CLK 9.72857 
14 *86:16 *609:A 9.3 
15 *86:10 *86:99 1.94643 
16 *86:99 *568:CLK 16.5321 
17 *86:99 *86:116 7.05357 
18 *86:116 *592:CLK 9.3 
19 *86:116 *569:CLK 10.2464 
*END

*D_NET *87 0.00663891
*CONN
*I *575:CLK I *D sky130_fd_sc_hd__dfrtp_1
*I *574:CLK I *D sky130_fd_sc_hd__dfrtp_1
*I *576:CLK I *D sky130_fd_sc_hd__dfrtp_1
*I *578:CLK I *D sky130_fd_sc_hd__dfrtp_1
*I *577:CLK I *D sky130_fd_sc_hd__dfrtp_1
*I *593:CLK I *D sky130_fd_sc_hd__dfrtp_1
*I *579:CLK I *D sky130_fd_sc_hd__dfrtp_1
*I *610:A I *D sky130_fd_sc_hd__clkinv_2
*I *607:X O *D sky130_fd_sc_hd__clkbuf_16
*CAP
1 *575:CLK 8.49873e-05
2 *574:CLK 0
3 *576:CLK 3.72704e-05
4 *578:CLK 0.000127147
5 *577:CLK 0.000117697
6 *593:CLK 0.000102718
7 *579:CLK 2.48592e-05
8 *610:A 0
9 *607:X 0
10 *87:49 0.000609368
11 *87:47 0.00088229
12 *87:41 0.00116748
13 *87:37 0.000924475
14 *87:12 0.000158127
15 *87:8 0.000386173
16 *87:6 0.000302694
17 *577:CLK *577:D 0
18 *577:CLK *663:A 6.65302e-05
19 *579:CLK *503:D 0.000144074
20 *579:CLK *91:72 7.6507e-05
21 *593:CLK *628:A 0.000228937
22 *593:CLK *93:33 0.000263587
23 *593:CLK *155:63 2.78521e-05
24 *593:CLK *155:71 8.28247e-05
25 *87:8 *91:110 0.000119378
26 *87:8 *132:26 0
27 *87:12 *636:A 9.25014e-06
28 *87:12 *91:84 2.49484e-05
29 *87:12 *91:110 7.17932e-05
30 *87:12 *132:26 0
31 *87:37 *492:A1 1.18064e-05
32 *87:37 *91:110 4.43046e-05
33 *87:37 *109:10 0.000126439
34 *87:47 *683:A 6.42242e-05
35 *87:49 *498:A1 0
36 *87:49 *541:A 5.26442e-05
37 *87:49 *132:26 0
38 seg1[0] *87:47 6.05161e-06
39 seg1[2] *87:49 7.69776e-06
40 seg1[4] *578:CLK 3.69047e-06
41 *492:A2 *87:37 0.000148903
42 *574:RESET_B *575:CLK 5.33334e-05
43 *574:RESET_B *87:41 1.52601e-05
44 *576:RESET_B *87:47 0
45 *576:RESET_B *87:49 0
46 *577:RESET_B *577:CLK 1.78353e-05
47 *577:RESET_B *87:49 4.57538e-05
48 *578:RESET_B *87:12 0
*RES
1 *607:X *87:6 13.8 
2 *87:6 *87:8 3.16071 
3 *87:8 *87:12 7.05357 
4 *87:12 *610:A 9.3 
5 *87:12 *579:CLK 10.6571 
6 *87:8 *593:CLK 18.4429 
7 *87:6 *87:37 7.96429 
8 *87:37 *87:41 8.25 
9 *87:41 *87:47 12.8929 
10 *87:47 *87:49 7.10714 
11 *87:49 *577:CLK 16.3536 
12 *87:49 *578:CLK 15.5679 
13 *87:47 *576:CLK 14.3357 
14 *87:41 *574:CLK 9.3 
15 *87:37 *575:CLK 10.9786 
*END

*D_NET *88 0.0104429
*CONN
*I *587:CLK I *D sky130_fd_sc_hd__dfrtp_1
*I *586:CLK I *D sky130_fd_sc_hd__dfrtp_1
*I *596:CLK I *D sky130_fd_sc_hd__dfrtp_4
*I *588:CLK I *D sky130_fd_sc_hd__dfrtp_1
*I *597:CLK I *D sky130_fd_sc_hd__dfrtp_4
*I *611:A I *D sky130_fd_sc_hd__clkbuf_4
*I *589:CLK I *D sky130_fd_sc_hd__dfrtp_1
*I *601:CLK I *D sky130_fd_sc_hd__dfrtp_1
*I *591:CLK I *D sky130_fd_sc_hd__dfrtp_1
*I *590:CLK I *D sky130_fd_sc_hd__dfrtp_1
*I *602:CLK I *D sky130_fd_sc_hd__dfrtp_1
*I *608:X O *D sky130_fd_sc_hd__clkbuf_16
*CAP
1 *587:CLK 0
2 *586:CLK 0.000449676
3 *596:CLK 2.06112e-05
4 *588:CLK 0.000156351
5 *597:CLK 1.62167e-05
6 *611:A 0
7 *589:CLK 0
8 *601:CLK 0.000593847
9 *591:CLK 2.47148e-05
10 *590:CLK 0.000198465
11 *602:CLK 0.000148284
12 *608:X 0.00016319
13 *88:97 0.000597528
14 *88:93 0.00101239
15 *88:80 0.000336887
16 *88:78 0.000244276
17 *88:55 0.000593847
18 *88:35 0.000509477
19 *88:22 0.000530311
20 *88:18 0.000143103
21 *88:14 0.000287983
22 *88:8 0.000469555
23 *586:CLK *520:A3 3.06878e-06
24 *588:CLK *538:A 0
25 *588:CLK *561:A 0.00010096
26 *588:CLK *588:D 4.57538e-05
27 *588:CLK *596:D 2.14658e-05
28 *588:CLK *597:D 0
29 *590:CLK *527:A3 3.17148e-05
30 *590:CLK *529:A2 3.84511e-05
31 *590:CLK *529:A3 7.252e-05
32 *590:CLK *531:B1 0
33 *590:CLK *532:A1 0
34 *590:CLK *94:117 0
35 *590:CLK *148:117 5.58941e-05
36 *590:CLK *153:36 3.25078e-05
37 *591:CLK *527:A3 4.90803e-05
38 *591:CLK *532:A1 0
39 *591:CLK *591:D 0
40 *596:CLK *561:A 3.99614e-06
41 *597:CLK *92:61 9.90367e-05
42 *597:CLK *93:87 5.62995e-05
43 *601:CLK *596:D 6.05161e-06
44 *601:CLK *89:8 6.57032e-05
45 *602:CLK *91:32 0.000221641
46 *88:14 *151:69 0.000269422
47 *88:14 *151:73 9.42111e-05
48 *88:14 *157:90 0.0002253
49 *88:18 *91:32 9.21958e-05
50 *88:22 *91:32 8.91822e-05
51 *88:22 *151:27 6.8646e-06
52 *88:35 *527:A3 5.33005e-05
53 *88:35 *94:117 9.71197e-05
54 *88:78 *587:D 2.8266e-06
55 *88:78 *151:73 3.75621e-05
56 *88:78 *151:79 0
57 *88:78 *157:90 0.000140375
58 *88:80 *522:B1 5.52238e-05
59 *88:80 *525:A1 0.000194279
60 *88:80 *586:D 2.59355e-05
61 *88:80 *92:61 0.000484524
62 *88:80 *93:87 2.14658e-05
63 *88:93 *525:B1 0
64 *88:93 *597:D 0
65 *88:93 *673:A 0.000107494
66 *88:97 *596:D 5.04705e-05
67 *522:A2 *88:80 5.52238e-05
68 *596:RESET_B *586:CLK 0.000261729
69 *601:D *601:CLK 6.57032e-05
70 *73:33 *590:CLK 5.7616e-05
71 *82:8 *88:22 3.34366e-05
72 *82:12 *88:35 0.000167435
73 *82:25 *88:35 8.25843e-06
74 *82:66 *88:18 0.000177941
75 *82:66 *88:22 0.000166983
*RES
1 *608:X *88:8 15.5679 
2 *88:8 *88:14 10.5536 
3 *88:14 *88:18 6.75 
4 *88:18 *88:22 7.05357 
5 *88:22 *602:CLK 12.3 
6 *88:22 *88:35 10.2857 
7 *88:35 *590:CLK 18.175 
8 *88:35 *591:CLK 14.5321 
9 *88:18 *88:55 4.5 
10 *88:55 *601:CLK 18.4786 
11 *88:55 *589:CLK 9.3 
12 *88:14 *611:A 9.3 
13 *88:8 *88:78 6.44643 
14 *88:78 *88:80 5.875 
15 *88:80 *597:CLK 10.2464 
16 *88:80 *88:93 12.1607 
17 *88:93 *88:97 5.07143 
18 *88:97 *588:CLK 21.6036 
19 *88:97 *596:CLK 9.72857 
20 *88:93 *586:CLK 15.0857 
21 *88:78 *587:CLK 9.3 
*END

*D_NET *89 0.00212506
*CONN
*I *617:A I *D sky130_fd_sc_hd__clkbuf_2
*I *616:A I *D sky130_fd_sc_hd__buf_2
*I *601:Q O *D sky130_fd_sc_hd__dfrtp_1
*CAP
1 *617:A 9.31874e-05
2 *616:A 0.000179967
3 *601:Q 0.000119302
4 *89:8 0.000392456
5 *616:A *471:C 5.52238e-05
6 *616:A *521:B 0.000180777
7 *616:A *565:A 0.000145753
8 *616:A *93:93 0.000106149
9 *616:A *151:27 5.8183e-05
10 *616:A *151:31 3.17163e-05
11 *617:A *565:A 0.000223599
12 *617:A *93:93 7.80929e-05
13 *617:A *151:23 2.89016e-05
14 *471:B_N *616:A 0.00014285
15 *601:CLK *89:8 6.57032e-05
16 *601:RESET_B *616:A 7.83659e-05
17 *601:RESET_B *617:A 7.22594e-05
18 *83:49 *616:A 7.25785e-05
*RES
1 *601:Q *89:8 15.1571 
2 *89:8 *616:A 20.05 
3 *89:8 *617:A 17.1929 
*END

*D_NET *90 0.00485429
*CONN
*I *615:A I *D sky130_fd_sc_hd__clkbuf_2
*I *614:A I *D sky130_fd_sc_hd__buf_2
*I *602:Q O *D sky130_fd_sc_hd__dfrtp_1
*CAP
1 *615:A 0.000293176
2 *614:A 0.000352358
3 *602:Q 0.000260893
4 *90:8 0.000906428
5 *614:A *474:B 0.000329737
6 *614:A *506:A_N 5.52238e-05
7 *615:A *472:A1 0.000127446
8 *90:8 *91:32 6.13757e-06
9 *90:8 *152:22 4.62861e-05
10 *476:B1 *614:A 0
11 *476:B1 *615:A 0
12 *602:RESET_B *90:8 1.58163e-05
13 *608:A *615:A 0.000142856
14 *73:33 *614:A 0.000785329
15 *74:96 *614:A 7.6644e-05
16 *74:96 *615:A 0.000388146
17 *80:12 *614:A 0.000117621
18 *84:36 *614:A 0.000307871
19 *84:36 *615:A 0.000642318
*RES
1 *602:Q *90:8 16.8 
2 *90:8 *614:A 25.8179 
3 *90:8 *615:A 23.4786 
*END

*D_NET *91 0.0224661
*CONN
*I *477:A3 I *D sky130_fd_sc_hd__a31o_1
*I *478:A1 I *D sky130_fd_sc_hd__a21o_1
*I *639:A I *D sky130_fd_sc_hd__dlygate4sd3_1
*I *492:A1 I *D sky130_fd_sc_hd__a21o_1
*I *491:A3 I *D sky130_fd_sc_hd__a31o_1
*I *507:A1 I *D sky130_fd_sc_hd__a21o_1
*I *505:A3 I *D sky130_fd_sc_hd__a31o_1
*I *520:A3 I *D sky130_fd_sc_hd__a31o_1
*I *522:A1 I *D sky130_fd_sc_hd__a21o_1
*I *595:Q O *D sky130_fd_sc_hd__dfstp_2
*CAP
1 *477:A3 0
2 *478:A1 0.000139626
3 *639:A 0
4 *492:A1 0.000254659
5 *491:A3 9.99929e-05
6 *507:A1 0.000298556
7 *505:A3 9.45651e-05
8 *520:A3 0.000616383
9 *522:A1 0.00010375
10 *595:Q 1.93842e-05
11 *91:149 0.00193054
12 *91:110 0.000612221
13 *91:84 0.00106404
14 *91:72 0.00189078
15 *91:64 0.0010958
16 *91:32 0.00178627
17 *91:20 0.00171033
18 *91:6 0.00232099
19 *478:A1 *621:A 0.000197609
20 *478:A1 *677:A 0.000346639
21 *491:A3 *491:B1 5.33334e-05
22 *492:A1 *491:A1 9.11365e-06
23 *492:A1 *574:D 9.60939e-05
24 *505:A3 *469:A 0
25 *505:A3 *505:A1 5.71472e-05
26 *505:A3 *666:A 2.95726e-05
27 *507:A1 *505:A1 0.00037539
28 *507:A1 *666:A 1.21258e-05
29 *507:A1 *93:41 0.000183374
30 *520:A3 *520:A2 0.000154762
31 *520:A3 *525:A2 0
32 *520:A3 *525:B1 7.73758e-05
33 *520:A3 *526:B1 0.00019384
34 *520:A3 *552:A 6.76272e-05
35 *520:A3 *560:A 9.87983e-06
36 *520:A3 *586:D 5.83304e-05
37 *520:A3 *587:D 0.00020112
38 *520:A3 *151:79 3.98524e-05
39 *520:A3 *157:90 5.91099e-05
40 *522:A1 *525:A1 0.000137983
41 *91:6 *473:C 1.24368e-05
42 *91:6 *92:126 1.98839e-05
43 *91:6 *150:35 2.89114e-05
44 *91:20 *598:D 1.63058e-05
45 *91:20 *646:A 0
46 *91:20 *92:82 0
47 *91:20 *155:46 0.000737521
48 *91:32 *525:A2 0
49 *91:32 *526:B1 0.000148903
50 *91:32 *565:A 1.08359e-05
51 *91:32 *151:27 0.000365682
52 *91:32 *152:22 0.000135028
53 *91:64 *543:A 0.00010096
54 *91:64 *646:A 0
55 *91:64 *155:46 8.57023e-05
56 *91:72 *503:D 5.81057e-05
57 *91:72 *543:A 0.000142856
58 *91:72 *636:A 2.59355e-05
59 *91:72 *206:14 6.38152e-05
60 *91:84 *498:A1 3.06406e-05
61 *91:84 *636:A 0.000448245
62 *91:84 *662:A 0.00040279
63 *91:84 *665:A 0
64 *91:84 *93:41 0
65 *91:84 *152:32 0
66 *91:110 *491:A1 4.56011e-05
67 *91:110 *495:A1 3.22167e-05
68 *91:110 *111:12 6.42145e-05
69 *91:110 *152:32 0
70 *91:149 *473:B 3.47641e-06
71 *91:149 *473:C 0.000168334
72 *91:149 *147:182 0.000209464
73 *91:149 *150:35 6.42095e-05
74 seg0[1] *91:149 0.000295167
75 *473:A_N *91:149 5.52238e-05
76 *492:A2 *492:A1 0.000342488
77 *504:C *91:72 2.92603e-05
78 *511:A2 *507:A1 0.00014183
79 *579:CLK *91:72 7.6507e-05
80 *579:RESET_B *91:72 0.000215509
81 *586:CLK *520:A3 3.06878e-06
82 *596:RESET_B *520:A3 5.88068e-05
83 *601:RESET_B *91:32 5.52238e-05
84 *602:CLK *91:32 0.000221641
85 *602:RESET_B *91:20 5.58941e-05
86 *602:RESET_B *91:64 0.000126439
87 *603:CLK *91:20 0.000177234
88 *73:14 *91:84 3.79467e-05
89 *74:67 *491:A3 0.000224583
90 *82:66 *91:32 5.93786e-05
91 *84:10 *91:149 9.87983e-06
92 *87:8 *91:110 0.000119378
93 *87:12 *91:84 2.49484e-05
94 *87:12 *91:110 7.17932e-05
95 *87:37 *492:A1 1.18064e-05
96 *87:37 *91:110 4.43046e-05
97 *88:18 *91:32 9.21958e-05
98 *88:22 *91:32 8.91822e-05
99 *90:8 *91:32 6.13757e-06
*RES
1 *595:Q *91:6 9.83571 
2 *91:6 *91:20 16.6964 
3 *91:20 *91:32 27.3393 
4 *91:32 *522:A1 15.1571 
5 *91:32 *520:A3 35.175 
6 *91:20 *91:64 7.91071 
7 *91:64 *91:72 18.1071 
8 *91:72 *91:84 27.5893 
9 *91:84 *505:A3 11.0857 
10 *91:84 *507:A1 25.2821 
11 *91:72 *91:110 6.19643 
12 *91:110 *491:A3 16.4071 
13 *91:110 *492:A1 19.425 
14 *91:64 *639:A 9.3 
15 *91:6 *91:149 16.8708 
16 *91:149 *478:A1 18.7821 
17 *91:149 *477:A3 13.8 
*END

*D_NET *92 0.0184443
*CONN
*I *494:A1 I *D sky130_fd_sc_hd__a21o_1
*I *480:A1 I *D sky130_fd_sc_hd__a21o_1
*I *479:A3 I *D sky130_fd_sc_hd__a31o_1
*I *509:A1 I *D sky130_fd_sc_hd__a21o_1
*I *508:A3 I *D sky130_fd_sc_hd__a31o_1
*I *493:A3 I *D sky130_fd_sc_hd__a31o_1
*I *642:A I *D sky130_fd_sc_hd__dlygate4sd3_1
*I *523:A3 I *D sky130_fd_sc_hd__a31o_1
*I *524:A1 I *D sky130_fd_sc_hd__a21o_1
*I *596:Q O *D sky130_fd_sc_hd__dfrtp_4
*CAP
1 *494:A1 0.000335874
2 *480:A1 0
3 *479:A3 0.000369732
4 *509:A1 0
5 *508:A3 0.000336457
6 *493:A3 0.000121312
7 *642:A 8.23797e-05
8 *523:A3 0
9 *524:A1 0.000194275
10 *596:Q 1.66263e-06
11 *92:126 0.00139765
12 *92:86 0.00083265
13 *92:82 0.00222063
14 *92:65 0.000902325
15 *92:61 0.00165681
16 *92:20 0.000479759
17 *92:12 0.00051824
18 *92:8 0.00138848
19 *479:A3 *480:A2 1.98839e-05
20 *479:A3 *480:B1 0.00024443
21 *479:A3 *96:54 5.48198e-05
22 *479:A3 *147:182 5.74499e-06
23 *493:A3 *493:A1 1.21258e-05
24 *493:A3 *493:A2 2.59355e-05
25 *494:A1 *494:B1 7.29873e-05
26 *494:A1 *110:12 3.69047e-06
27 *494:A1 *202:8 0.000183438
28 *508:A3 *508:A2 2.59355e-05
29 *508:A3 *508:B1 0.000110808
30 *508:A3 *154:47 0.000114461
31 *508:A3 *208:16 5.33005e-05
32 *524:A1 *523:A1 1.32552e-05
33 *524:A1 *523:A2 5.31719e-05
34 *524:A1 *523:B1 5.52238e-05
35 *524:A1 *587:D 0.000229456
36 *524:A1 *121:16 0
37 *642:A *552:A 5.57914e-05
38 *92:8 *522:B1 2.26973e-05
39 *92:12 *522:B1 3.55407e-05
40 *92:12 *525:B1 0
41 *92:12 *526:B1 5.66946e-05
42 *92:12 *552:A 1.96812e-05
43 *92:12 *157:90 5.01876e-06
44 *92:20 *520:A2 9.60875e-05
45 *92:20 *522:B1 9.8935e-05
46 *92:20 *523:A2 0.000521792
47 *92:20 *560:A 0.000139913
48 *92:20 *587:D 0.000127034
49 *92:20 *649:A 0.000140933
50 *92:20 *121:16 5.33334e-05
51 *92:61 *493:B1 9.06697e-05
52 *92:61 *504:A 5.19806e-05
53 *92:61 *522:B1 0.000138178
54 *92:61 *526:B1 0
55 *92:61 *673:A 5.71472e-05
56 *92:61 *93:8 5.39166e-06
57 *92:61 *93:87 0.000159856
58 *92:61 *110:12 6.4382e-05
59 *92:61 *155:113 0
60 *92:65 *493:B1 5.01448e-05
61 *92:65 *504:A 0.000190805
62 *92:82 *493:A2 0.000526253
63 *92:82 *598:D 0
64 *92:82 *646:A 0.000649846
65 *92:82 *93:12 6.73939e-05
66 *92:82 *96:87 0
67 *92:82 *150:35 0.000108118
68 *92:82 *154:29 0
69 *92:126 *473:C 0.000312209
70 *92:126 *480:A2 5.52238e-05
71 *92:126 *147:182 0.000143635
72 *92:126 *150:21 0.000144384
73 *92:126 *150:35 0.000114369
74 *475:B1 *92:126 0.000144773
75 *476:B1 *92:126 2.87584e-05
76 *509:A2 *92:86 9.73704e-05
77 *524:A2 *524:A1 5.52302e-05
78 *588:RESET_B *642:A 0
79 *588:RESET_B *92:12 0
80 *594:CLK *508:A3 0
81 *595:CLK *508:A3 0.00011105
82 *595:CLK *92:86 1.02937e-05
83 *595:SET_B *92:82 0.000177934
84 *596:RESET_B *92:12 0.000100831
85 *597:CLK *92:61 9.90367e-05
86 *604:A *92:65 8.84829e-05
87 *604:A *92:82 0.000223517
88 *607:A *92:82 8.25843e-06
89 *73:33 *479:A3 2.20608e-05
90 *80:55 *508:A3 0.000214162
91 *85:33 *508:A3 8.449e-05
92 *85:35 *508:A3 5.33005e-05
93 *88:80 *92:61 0.000484524
94 *91:6 *92:126 1.98839e-05
95 *91:20 *92:82 0
*RES
1 *596:Q *92:8 14.0768 
2 *92:8 *92:12 3.84821 
3 *92:12 *92:20 13.8036 
4 *92:20 *524:A1 13.8536 
5 *92:20 *523:A3 9.3 
6 *92:12 *642:A 15.7464 
7 *92:8 *92:61 28.9732 
8 *92:61 *92:65 7.05357 
9 *92:65 *493:A3 10.9786 
10 *92:65 *92:82 27.4821 
11 *92:82 *92:86 5.89286 
12 *92:86 *508:A3 25.8357 
13 *92:86 *509:A1 9.3 
14 *92:82 *92:126 17.1429 
15 *92:126 *479:A3 23.4071 
16 *92:126 *480:A1 9.3 
17 *92:61 *494:A1 18.5857 
*END

*D_NET *93 0.0182099
*CONN
*I *525:A3 I *D sky130_fd_sc_hd__a31o_1
*I *526:A1 I *D sky130_fd_sc_hd__a21o_1
*I *482:A1 I *D sky130_fd_sc_hd__a21o_1
*I *481:A3 I *D sky130_fd_sc_hd__a31o_1
*I *495:A3 I *D sky130_fd_sc_hd__a31o_1
*I *496:A1 I *D sky130_fd_sc_hd__a21o_1
*I *510:A3 I *D sky130_fd_sc_hd__a31o_1
*I *511:A1 I *D sky130_fd_sc_hd__a21o_1
*I *646:A I *D sky130_fd_sc_hd__dlygate4sd3_1
*I *597:Q O *D sky130_fd_sc_hd__dfrtp_4
*CAP
1 *525:A3 0
2 *526:A1 0
3 *482:A1 0
4 *481:A3 0.000532765
5 *495:A3 0
6 *496:A1 8.274e-05
7 *510:A3 0
8 *511:A1 0.000256036
9 *646:A 0.000512001
10 *597:Q 7.04632e-05
11 *93:93 0.00176518
12 *93:91 0.00134466
13 *93:87 0.000856452
14 *93:41 0.00114327
15 *93:33 0.00207881
16 *93:12 0.00178887
17 *93:8 0.000982704
18 *481:A3 *481:A1 0.000170693
19 *481:A3 *481:B1 0
20 *481:A3 *482:B1 0.000163047
21 *481:A3 *534:A 0.000143983
22 *481:A3 *640:A 0
23 *481:A3 *147:125 5.71472e-05
24 *496:A1 *496:B1 0.000103425
25 *496:A1 *628:A 0
26 *496:A1 *661:A 9.80173e-05
27 *511:A1 *505:A1 0
28 *511:A1 *505:A2 0
29 *511:A1 *511:B1 5.10678e-05
30 *511:A1 *594:D 7.37829e-05
31 *511:A1 *667:A 0.00012501
32 *511:A1 *207:8 9.34596e-05
33 *511:A1 *209:10 2.82057e-05
34 *646:A *598:D 5.71472e-05
35 *646:A *155:57 0
36 *646:A *155:100 0
37 *93:12 *493:A2 1.31516e-05
38 *93:12 *493:B1 6.42338e-05
39 *93:12 *155:100 0
40 *93:12 *155:113 0
41 *93:33 *496:B1 4.0633e-05
42 *93:33 *593:D 1.28171e-05
43 *93:33 *628:A 6.83624e-05
44 *93:33 *155:63 4.73308e-05
45 *93:41 *469:A 0
46 *93:41 *491:A2 2.31791e-05
47 *93:41 *505:A1 7.59227e-05
48 *93:41 *510:A1 2.44318e-05
49 *93:41 *510:A2 0.00020192
50 *93:41 *510:B1 0.000229456
51 *93:41 *666:A 6.82922e-05
52 *93:41 *668:A 1.21289e-05
53 *93:41 *94:37 0
54 *93:41 *147:69 0.000214198
55 *93:41 *152:32 0.000336922
56 *93:41 *154:53 7.59321e-05
57 *93:87 *525:A1 1.97695e-05
58 *93:91 *525:A2 0.000174812
59 *93:93 *473:B 0
60 *93:93 *475:A1 7.83659e-05
61 *93:93 *525:A2 0.000150625
62 *93:93 *534:A 0
63 *93:93 *565:A 2.46999e-05
64 *93:93 *127:44 9.01238e-05
65 *93:93 *127:57 0.000119374
66 *93:93 *147:109 0
67 *93:93 *147:182 0
68 *93:93 *151:12 0.000146474
69 *93:93 *156:58 0
70 seg0[3] *481:A3 5.7616e-05
71 *474:C *93:93 8.07879e-05
72 *475:A2 *93:93 9.77277e-05
73 *475:B1 *93:93 0
74 *476:B1 *93:93 0
75 *507:A1 *93:41 0.000183374
76 *511:A2 *511:A1 0
77 *581:CLK *93:41 0.000173097
78 *593:CLK *93:33 0.000263587
79 *593:RESET_B *646:A 0
80 *593:RESET_B *93:12 0
81 *597:CLK *93:87 5.62995e-05
82 *598:RESET_B *93:93 0
83 *601:RESET_B *93:93 0.000150625
84 *602:D *93:93 0.000113362
85 *604:A *93:12 1.11798e-05
86 *606:A *93:93 5.9483e-05
87 *616:A *93:93 0.000106149
88 *617:A *93:93 7.80929e-05
89 *73:14 *93:41 0.00010326
90 *74:12 *646:A 0.000309273
91 *74:33 *93:41 0.000117369
92 *74:52 *93:41 9.87865e-05
93 *74:67 *93:41 1.19309e-05
94 *83:36 *93:93 0.000114045
95 *83:49 *93:93 0.000227797
96 *88:80 *93:87 2.14658e-05
97 *91:20 *646:A 0
98 *91:64 *646:A 0
99 *91:84 *93:41 0
100 *92:61 *93:8 5.39166e-06
101 *92:61 *93:87 0.000159856
102 *92:82 *646:A 0.000649846
103 *92:82 *93:12 6.73939e-05
*RES
1 *597:Q *93:8 10.2643 
2 *93:8 *93:12 7.96429 
3 *93:12 *646:A 25.6571 
4 *93:12 *93:33 18.625 
5 *93:33 *93:41 31.9643 
6 *93:41 *511:A1 23.7107 
7 *93:41 *510:A3 9.3 
8 *93:33 *496:A1 11.4964 
9 *93:33 *495:A3 9.3 
10 *93:8 *93:87 10.9643 
11 *93:87 *93:91 6.75 
12 *93:91 *93:93 27.1429 
13 *93:93 *481:A3 24.8179 
14 *93:93 *482:A1 13.8 
15 *93:91 *526:A1 13.8 
16 *93:87 *525:A3 9.3 
*END

*D_NET *94 0.0183021
*CONN
*I *527:A3 I *D sky130_fd_sc_hd__a31o_1
*I *528:A1 I *D sky130_fd_sc_hd__a21o_1
*I *484:A1 I *D sky130_fd_sc_hd__a21o_1
*I *483:A3 I *D sky130_fd_sc_hd__a31o_1
*I *641:A I *D sky130_fd_sc_hd__dlygate4sd3_1
*I *513:A1 I *D sky130_fd_sc_hd__a21o_1
*I *497:A3 I *D sky130_fd_sc_hd__a31o_1
*I *498:A1 I *D sky130_fd_sc_hd__a21o_1
*I *512:A3 I *D sky130_fd_sc_hd__a31o_1
*I *598:Q O *D sky130_fd_sc_hd__dfrtp_4
*CAP
1 *527:A3 0.000287333
2 *528:A1 0
3 *484:A1 0.000240097
4 *483:A3 0.000330876
5 *641:A 1.63023e-05
6 *513:A1 0
7 *497:A3 0
8 *498:A1 0.000665352
9 *512:A3 3.19191e-05
10 *598:Q 2.23854e-05
11 *94:117 0.000939985
12 *94:100 0.00125042
13 *94:79 0.000889541
14 *94:37 0.00121276
15 *94:20 0.0010219
16 *94:12 0.000729639
17 *94:10 0.00119121
18 *94:6 0.00111122
19 *483:A3 *534:A 0.000276857
20 *483:A3 *680:A 2.89016e-05
21 *483:A3 *147:109 0.000812524
22 *483:A3 *147:125 1.18539e-05
23 *483:A3 *156:58 0.000272658
24 *484:A1 *484:B1 0.00014183
25 *484:A1 *146:12 0.000221156
26 *484:A1 *146:25 9.58624e-05
27 *484:A1 *148:75 0.000104258
28 *484:A1 *198:12 0.000227532
29 *498:A1 *469:A 1.02504e-05
30 *498:A1 *498:B1 9.22103e-06
31 *498:A1 *499:A3 4.38243e-05
32 *498:A1 *503:B 9.7659e-05
33 *498:A1 *503:C 5.28752e-05
34 *498:A1 *503:D 0.000372895
35 *498:A1 *577:D 0
36 *498:A1 *636:A 0.000178075
37 *498:A1 *152:52 0.000207054
38 *498:A1 *152:54 0.000186749
39 *512:A3 *512:B1 5.7616e-05
40 *512:A3 *150:47 1.01075e-05
41 *512:A3 *154:53 4.08629e-05
42 *527:A3 *532:A1 0
43 *527:A3 *591:D 0
44 *527:A3 *124:10 0
45 *527:A3 *153:34 1.02504e-05
46 *527:A3 *153:36 0.000439656
47 *94:12 *599:D 1.07719e-05
48 *94:20 *512:B1 9.41642e-05
49 *94:20 *513:B1 9.83442e-05
50 *94:20 *514:A2 1.98839e-05
51 *94:20 *518:A 1.13883e-05
52 *94:20 *518:B 3.68699e-05
53 *94:20 *518:C 9.83388e-05
54 *94:20 *518:D 9.58126e-05
55 *94:20 *583:D 2.64262e-06
56 *94:20 *147:37 1.46231e-05
57 *94:20 *210:6 2.31952e-05
58 *94:37 *469:A 0
59 *94:37 *497:A1 5.7661e-06
60 *94:37 *507:B1 0.000147132
61 *94:37 *508:A2 4.75152e-06
62 *94:37 *519:B 0.000101545
63 *94:37 *581:D 0.000150618
64 *94:37 *662:A 5.52302e-05
65 *94:37 *147:14 7.63376e-05
66 *94:37 *147:29 3.21916e-05
67 *94:37 *147:37 4.38604e-05
68 *94:37 *150:47 3.52194e-05
69 *94:37 *154:53 0.000212655
70 *94:117 *490:B 0.000177941
71 *94:117 *529:A2 2.96741e-05
72 *94:117 *567:A 9.34004e-05
73 *94:117 *146:8 0.000196927
74 *94:117 *146:12 0.000488363
75 *94:117 *147:182 1.05524e-05
76 *94:117 *148:75 0.000104175
77 *94:117 *148:117 0.000112411
78 *94:117 *153:36 3.25078e-05
79 *94:117 *156:52 1.17968e-05
80 *94:117 *196:10 0.000136864
81 *490:C *484:A1 4.13477e-05
82 *498:A2 *498:A1 8.08022e-05
83 *504:C *498:A1 0.000479652
84 *513:A2 *94:12 5.49489e-05
85 *570:CLK *483:A3 5.52302e-05
86 *571:RESET_B *483:A3 0.000100823
87 *578:RESET_B *498:A1 0
88 *590:CLK *527:A3 3.17148e-05
89 *590:CLK *94:117 0
90 *591:CLK *527:A3 4.90803e-05
91 *598:CLK *641:A 1.3701e-05
92 *598:CLK *94:10 0.000275341
93 *73:14 *94:37 0.000142157
94 *82:8 *94:117 0
95 *86:10 *94:100 0.000178847
96 *87:49 *498:A1 0
97 *88:35 *527:A3 5.33005e-05
98 *88:35 *94:117 9.71197e-05
99 *91:84 *498:A1 3.06406e-05
100 *93:41 *94:37 0
*RES
1 *598:Q *94:6 9.72857 
2 *94:6 *94:10 10.8214 
3 *94:10 *94:12 4.23214 
4 *94:12 *94:20 11.75 
5 *94:20 *512:A3 14.8357 
6 *94:20 *94:37 17.6429 
7 *94:37 *498:A1 43.6214 
8 *94:37 *497:A3 9.3 
9 *94:12 *513:A1 9.3 
10 *94:10 *641:A 9.72857 
11 *94:6 *94:79 2.17857 
12 *94:79 *483:A3 30.2464 
13 *94:79 *94:100 8.73214 
14 *94:100 *484:A1 21.3893 
15 *94:100 *94:117 21.0536 
16 *94:117 *528:A1 9.3 
17 *94:117 *527:A3 24.425 
*END

*D_NET *95 0.0193656
*CONN
*I *643:A I *D sky130_fd_sc_hd__dlygate4sd3_1
*I *530:A1 I *D sky130_fd_sc_hd__a21o_1
*I *529:A3 I *D sky130_fd_sc_hd__a31o_1
*I *486:A1 I *D sky130_fd_sc_hd__a21o_1
*I *485:A3 I *D sky130_fd_sc_hd__a31o_1
*I *515:A1 I *D sky130_fd_sc_hd__a21o_1
*I *514:A3 I *D sky130_fd_sc_hd__a31o_1
*I *500:A1 I *D sky130_fd_sc_hd__a21o_1
*I *499:A3 I *D sky130_fd_sc_hd__a31o_1
*I *599:Q O *D sky130_fd_sc_hd__dfrtp_4
*CAP
1 *643:A 2.66909e-05
2 *530:A1 6.53381e-05
3 *529:A3 0.000298627
4 *486:A1 0.000105658
5 *485:A3 0
6 *515:A1 0
7 *514:A3 0.000100222
8 *500:A1 0.000501498
9 *499:A3 8.11533e-05
10 *599:Q 0.000108307
11 *95:118 0.000778656
12 *95:105 0.000827177
13 *95:94 0.00128272
14 *95:62 0.000200562
15 *95:26 0.002763
16 *95:18 0.00371193
17 *95:12 0.0024354
18 *95:10 0.000163257
19 *486:A1 *486:A2 5.71472e-05
20 *486:A1 *619:A 9.00795e-06
21 *499:A3 *497:B1 1.83053e-05
22 *499:A3 *636:A 4.75911e-05
23 *500:A1 *500:B1 5.80706e-06
24 *500:A1 *152:54 0
25 *514:A3 *516:A1 5.80706e-06
26 *514:A3 *150:57 8.06427e-05
27 *529:A3 *529:B1 9.71197e-05
28 *529:A3 *531:A1 9.71197e-05
29 *529:A3 *531:B1 4.46186e-06
30 *529:A3 *590:D 0.00050432
31 *529:A3 *678:A 6.01685e-05
32 *529:A3 *96:54 0.000121217
33 *529:A3 *127:12 0.000151215
34 *529:A3 *156:44 0.000315158
35 *530:A1 *127:12 0.000215102
36 *95:10 *563:A 4.71964e-05
37 *95:10 *564:A 0.000137224
38 *95:10 *155:8 5.52302e-05
39 *95:10 *155:21 3.34366e-05
40 *95:12 *564:A 4.80729e-05
41 *95:18 *564:A 0.000162735
42 *95:62 *514:B1 4.15183e-05
43 *95:62 *548:A 0
44 *95:94 *485:A1 6.09963e-05
45 *95:94 *489:A 9.71197e-05
46 *95:94 *489:B 7.79897e-05
47 *95:94 *489:D 9.90367e-05
48 *95:94 *571:D 0.000337638
49 *95:94 *572:D 1.56e-05
50 *95:94 *681:A 4.43355e-05
51 *95:94 *199:12 5.03808e-05
52 *95:105 *485:A1 4.43256e-05
53 *95:105 *485:B1 0.00014285
54 *95:105 *486:B1 5.62995e-05
55 *95:105 *488:A2 0
56 *95:105 *138:14 9.25014e-06
57 *95:105 *138:23 0.000117189
58 *95:105 *199:12 0.000173921
59 *95:118 *477:B1 0.000166495
60 *95:118 *478:A2 0
61 *95:118 *486:B1 0
62 *95:118 *621:A 0.000444717
63 *95:118 *103:10 0.000154762
64 *95:118 *104:12 0.000125304
65 *95:118 *138:23 0.000131297
66 *95:118 *156:34 0.000180919
67 seg0[1] *95:118 5.59369e-05
68 *490:C *95:94 5.33005e-05
69 *498:A1 *499:A3 4.38243e-05
70 *501:A1 *500:A1 0
71 *515:A2 *514:A3 5.33005e-05
72 *515:A2 *95:62 9.41642e-05
73 *530:A2 *529:A3 6.05161e-06
74 *530:A2 *530:A1 0.000132524
75 *584:RESET_B *514:A3 0.000150618
76 *590:CLK *529:A3 7.252e-05
77 *599:RESET_B *643:A 5.33005e-05
78 *599:RESET_B *95:94 3.30352e-05
79 *73:33 *529:A3 0.000227021
80 *74:33 *499:A3 5.33005e-05
81 *86:59 *95:94 1.40131e-05
82 *86:65 *95:94 2.65105e-05
*RES
1 *599:Q *95:10 16.5857 
2 *95:10 *95:12 0.732143 
3 *95:12 *95:18 7.93341 
4 *95:18 *95:26 10.8573 
5 *95:26 *499:A3 18.4091 
6 *95:26 *500:A1 18.522 
7 *95:18 *95:62 9.43679 
8 *95:62 *514:A3 20.7821 
9 *95:62 *515:A1 9.3 
10 *95:12 *95:94 19.7143 
11 *95:94 *485:A3 9.3 
12 *95:94 *95:105 12.0179 
13 *95:105 *486:A1 15.1571 
14 *95:105 *95:118 17.375 
15 *95:118 *529:A3 29.8357 
16 *95:118 *530:A1 11.9071 
17 *95:10 *643:A 14.3357 
*END

*D_NET *96 0.0193057
*CONN
*I *487:A3 I *D sky130_fd_sc_hd__a31o_1
*I *488:A1 I *D sky130_fd_sc_hd__a21o_1
*I *502:A1 I *D sky130_fd_sc_hd__a21o_1
*I *501:A3 I *D sky130_fd_sc_hd__a31o_1
*I *645:A I *D sky130_fd_sc_hd__dlygate4sd3_1
*I *532:A1 I *D sky130_fd_sc_hd__a21o_1
*I *531:A3 I *D sky130_fd_sc_hd__a31o_1
*I *516:A3 I *D sky130_fd_sc_hd__a31o_1
*I *517:A1 I *D sky130_fd_sc_hd__a21o_1
*I *600:Q O *D sky130_fd_sc_hd__dfrtp_4
*CAP
1 *487:A3 0
2 *488:A1 0.00055087
3 *502:A1 5.3543e-05
4 *501:A3 0.000145386
5 *645:A 0
6 *532:A1 0.000365882
7 *531:A3 0
8 *516:A3 0.00026468
9 *517:A1 0.000139751
10 *600:Q 0
11 *96:119 0.00151875
12 *96:87 0.000936238
13 *96:54 0.00200363
14 *96:36 0.00187161
15 *96:32 0.00140403
16 *96:17 0.000697533
17 *96:8 0.000819141
18 *96:4 0.00164727
19 *488:A1 *488:B1 5.80706e-06
20 *488:A1 *638:A 0
21 *488:A1 *682:A 3.58638e-05
22 *501:A3 *501:B1 1.98839e-05
23 *501:A3 *152:24 1.10868e-05
24 *501:A3 *152:26 2.07878e-05
25 *502:A1 *148:136 0.000100823
26 *516:A3 *516:B1 0
27 *516:A3 *548:A 0
28 *516:A3 *585:D 0
29 *516:A3 *637:A 0
30 *532:A1 *529:B1 5.03772e-05
31 *532:A1 *531:A2 1.87955e-05
32 *532:A1 *532:B1 2.78509e-05
33 *532:A1 *591:D 0.000125731
34 *532:A1 *675:A 0.00010096
35 *532:A1 *124:10 5.80706e-06
36 *532:A1 *156:115 0.000152147
37 *96:32 *600:D 0.000125717
38 *96:32 *637:A 0
39 *96:54 *479:A1 9.8045e-05
40 *96:54 *490:A 0.000183726
41 *96:54 *562:A 0.000142856
42 *96:54 *590:D 0.00010326
43 *96:54 *618:A 5.52302e-05
44 *96:54 *675:A 0
45 *96:54 *678:A 0.000168224
46 *96:54 *147:182 7.69776e-06
47 *96:54 *156:34 0
48 *96:54 *156:52 6.42778e-05
49 *96:54 *156:58 0.000183726
50 *96:54 *156:115 0
51 *96:54 *195:6 6.09804e-05
52 *96:87 *501:B1 3.33598e-05
53 *96:87 *502:B1 5.10822e-05
54 *96:87 *148:136 7.3364e-05
55 *96:87 *150:35 0
56 *96:119 *487:B1 1.91418e-05
57 *96:119 *572:D 5.52238e-05
58 *96:119 *640:A 9.90367e-05
59 *96:119 *681:A 0
60 *96:119 *148:33 0.000219711
61 *96:119 *148:62 0.000266092
62 seg0[5] *488:A1 0.000232399
63 *479:A3 *96:54 5.48198e-05
64 *487:A2 *488:A1 3.18676e-05
65 *487:A2 *96:119 0.000315887
66 *490:C *96:54 1.95435e-05
67 *501:A1 *501:A3 9.83388e-05
68 *501:A1 *502:A1 0.000101227
69 *504:C *96:87 2.0954e-05
70 *515:A2 *517:A1 9.75943e-05
71 *527:A3 *532:A1 0
72 *529:A3 *96:54 0.000121217
73 *568:CLK *96:54 0.000149368
74 *569:RESET_B *96:54 0
75 *585:CLK *516:A3 1.9774e-05
76 *585:CLK *96:32 3.07075e-06
77 *589:RESET_B *532:A1 0.000112418
78 *590:CLK *532:A1 0
79 *590:RESET_B *96:54 0
80 *591:CLK *532:A1 0
81 *595:SET_B *96:87 0
82 *604:A *96:87 8.04138e-05
83 *605:A *96:36 0.000619931
84 *605:A *96:54 3.82641e-05
85 *606:A *96:54 0.000301092
86 *613:A *517:A1 3.80953e-06
87 *613:A *96:8 0.000157803
88 *613:A *96:119 0.000151619
89 *72:10 *517:A1 5.19842e-06
90 *72:34 *96:32 0.000525982
91 *72:34 *96:87 0.000665432
92 *73:33 *96:54 0.000173461
93 *80:20 *96:32 4.25544e-05
94 *86:26 *96:119 2.89016e-05
95 *86:39 *96:119 2.77289e-05
96 *92:82 *96:87 0
*RES
1 *600:Q *96:4 9.3 
2 *96:4 *96:8 8.76786 
3 *96:8 *517:A1 11.0679 
4 *96:8 *96:17 4.5 
5 *96:17 *516:A3 17.8714 
6 *96:17 *96:32 11.1071 
7 *96:32 *96:36 10.375 
8 *96:36 *96:54 40.4821 
9 *96:54 *531:A3 9.3 
10 *96:54 *532:A1 26.4964 
11 *96:36 *645:A 9.3 
12 *96:32 *96:87 20.375 
13 *96:87 *501:A3 11.9071 
14 *96:87 *502:A1 19.6393 
15 *96:4 *96:119 26.375 
16 *96:119 *488:A1 28.5857 
17 *96:119 *487:A3 9.3 
*END

*D_NET *97 0.000540013
*CONN
*I *592:D I *D sky130_fd_sc_hd__dfrtp_1
*I *490:X O *D sky130_fd_sc_hd__and3_1
*CAP
1 *592:D 0.000143317
2 *490:X 0.000143317
3 *592:D *156:52 7.77652e-05
4 *592:RESET_B *592:D 0.000129868
5 *86:116 *592:D 4.57445e-05
*RES
1 *490:X *592:D 30.6 
*END

*D_NET *98 0.000756972
*CONN
*I *593:D I *D sky130_fd_sc_hd__dfrtp_1
*I *504:X O *D sky130_fd_sc_hd__and3_1
*CAP
1 *593:D 0.000247958
2 *504:X 0.000247958
3 *593:D *148:136 0.000136565
4 *593:D *152:24 5.68722e-05
5 *593:D *155:63 5.48009e-05
6 *93:33 *593:D 1.28171e-05
*RES
1 *504:X *593:D 32.4393 
*END

*D_NET *99 0.00241054
*CONN
*I *594:D I *D sky130_fd_sc_hd__dfrtp_1
*I *519:X O *D sky130_fd_sc_hd__and3_1
*CAP
1 *594:D 0.000975932
2 *519:X 0.000975932
3 *594:D *511:B1 1.90936e-05
4 *594:D *667:A 6.05161e-06
5 *594:D *150:35 0.000294426
6 *594:D *207:8 5.74499e-06
7 *594:D *209:10 5.33005e-05
8 *511:A1 *594:D 7.37829e-05
9 *519:C *594:D 0
10 *85:14 *594:D 6.27272e-06
*RES
1 *519:X *594:D 37.6966 
*END

*D_NET *100 0.000849452
*CONN
*I *475:A1 I *D sky130_fd_sc_hd__a21o_1
*I *592:Q O *D sky130_fd_sc_hd__dfrtp_1
*CAP
1 *475:A1 0.000362422
2 *592:Q 0.000362422
3 *475:A1 *147:107 4.62429e-05
4 *475:A1 *147:182 0
5 *93:93 *475:A1 7.83659e-05
*RES
1 *592:Q *475:A1 32.4571 
*END

*D_NET *101 0.000795669
*CONN
*I *648:A I *D sky130_fd_sc_hd__dlygate4sd3_1
*I *476:A1_N I *D sky130_fd_sc_hd__o2bb2a_1
*I *593:Q O *D sky130_fd_sc_hd__dfrtp_1
*CAP
1 *648:A 4.92513e-05
2 *476:A1_N 0.000124609
3 *593:Q 4.85785e-05
4 *101:6 0.000222439
5 *476:A1_N *561:A 4.19324e-05
6 *476:A1_N *566:A 0.000118438
7 *648:A *561:A 4.57445e-05
8 *648:A *155:100 0.000128154
9 *101:6 *155:63 9.33978e-07
10 *602:RESET_B *476:A1_N 1.55885e-05
*RES
1 *593:Q *101:6 9.83571 
2 *101:6 *476:A1_N 12.5009 
3 *101:6 *648:A 19.9429 
*END

*D_NET *102 0.00180064
*CONN
*I *473:C I *D sky130_fd_sc_hd__and4b_1
*I *594:Q O *D sky130_fd_sc_hd__dfrtp_1
*CAP
1 *473:C 0.000393684
2 *594:Q 0.000393684
3 *473:C *147:107 3.61629e-06
4 *473:C *150:35 3.48705e-05
5 *473:C *154:21 0.000114577
6 *473:C *155:46 9.91086e-05
7 *473:A_N *473:C 2.44318e-05
8 *594:RESET_B *473:C 0.000142856
9 *603:CLK *473:C 0.000100831
10 *91:6 *473:C 1.24368e-05
11 *91:149 *473:C 0.000168334
12 *92:126 *473:C 0.000312209
*RES
1 *594:Q *473:C 35.7607 
*END

*D_NET *103 0.00102346
*CONN
*I *477:B1 I *D sky130_fd_sc_hd__a31o_1
*I *635:A I *D sky130_fd_sc_hd__dlygate4sd3_1
*I *568:Q O *D sky130_fd_sc_hd__dfrtp_1
*CAP
1 *477:B1 4.74707e-05
2 *635:A 4.26984e-05
3 *568:Q 8.32916e-05
4 *103:10 0.000173461
5 *477:B1 *621:A 0.000175038
6 *103:10 *621:A 0.000151333
7 *103:10 *195:6 2.89114e-05
8 *95:118 *477:B1 0.000166495
9 *95:118 *103:10 0.000154762
*RES
1 *568:Q *103:10 16.2821 
2 *103:10 *635:A 14.3357 
3 *103:10 *477:B1 16.05 
*END

*D_NET *104 0.00199526
*CONN
*I *651:A I *D sky130_fd_sc_hd__dlygate4sd3_1
*I *479:B1 I *D sky130_fd_sc_hd__a31o_1
*I *569:Q O *D sky130_fd_sc_hd__dfrtp_1
*CAP
1 *651:A 0
2 *479:B1 0.000482441
3 *569:Q 7.19197e-05
4 *104:12 0.00055436
5 *479:B1 *477:A1 9.60939e-05
6 *479:B1 *477:A2 0.000278944
7 *479:B1 *479:A1 0.000114645
8 *479:B1 *480:B1 4.06801e-05
9 *479:B1 *147:182 0
10 *479:B1 *156:34 7.55804e-05
11 *104:12 *477:A1 5.52238e-05
12 *104:12 *156:34 6.28435e-05
13 *569:RESET_B *479:B1 3.72194e-05
14 *95:118 *104:12 0.000125304
*RES
1 *569:Q *104:12 20.4786 
2 *104:12 *479:B1 26.1884 
3 *104:12 *651:A 9.3 
*END

*D_NET *105 0.00147763
*CONN
*I *640:A I *D sky130_fd_sc_hd__dlygate4sd3_1
*I *481:B1 I *D sky130_fd_sc_hd__a31o_1
*I *570:Q O *D sky130_fd_sc_hd__dfrtp_1
*CAP
1 *640:A 0.000161609
2 *481:B1 0.000149056
3 *570:Q 0.000269039
4 *105:8 0.000579704
5 *640:A *564:A 0
6 *105:8 *564:A 0.00010096
7 *481:A3 *481:B1 0
8 *481:A3 *640:A 0
9 *570:RESET_B *481:B1 4.57445e-05
10 *570:RESET_B *640:A 1.91512e-05
11 *613:A *640:A 5.33334e-05
12 *96:119 *640:A 9.90367e-05
*RES
1 *570:Q *105:8 18.4429 
2 *105:8 *481:B1 16.05 
3 *105:8 *640:A 17.3 
*END

*D_NET *106 0.00204974
*CONN
*I *634:A I *D sky130_fd_sc_hd__dlygate4sd3_1
*I *483:B1 I *D sky130_fd_sc_hd__a31o_1
*I *571:Q O *D sky130_fd_sc_hd__dfrtp_1
*CAP
1 *634:A 6.16655e-05
2 *483:B1 0.000239396
3 *571:Q 0.000108669
4 *106:8 0.000409731
5 *483:B1 *489:D 0
6 *483:B1 *572:D 0.000107343
7 *483:B1 *681:A 0.000181368
8 *483:B1 *148:33 0
9 *483:B1 *148:49 0.000188586
10 *483:B1 *198:12 7.79781e-06
11 *634:A *197:10 0
12 *634:A *198:12 2.05938e-05
13 *106:8 *489:B 1.21258e-05
14 *106:8 *571:D 3.69047e-06
15 *106:8 *572:D 9.71197e-05
16 *490:C *483:B1 9.3745e-05
17 *490:C *634:A 0.000125724
18 *570:CLK *483:B1 0.000144773
19 *573:CLK *483:B1 4.18895e-05
20 *86:16 *634:A 9.25014e-06
21 *86:39 *483:B1 0.000196269
*RES
1 *571:Q *106:8 15.1571 
2 *106:8 *483:B1 21.4607 
3 *106:8 *634:A 15.4429 
*END

*D_NET *107 0.000657984
*CONN
*I *623:A I *D sky130_fd_sc_hd__dlygate4sd3_1
*I *485:B1 I *D sky130_fd_sc_hd__a31o_1
*I *572:Q O *D sky130_fd_sc_hd__dfrtp_1
*CAP
1 *623:A 0
2 *485:B1 5.5939e-05
3 *572:Q 0.000155393
4 *107:12 0.000211332
5 *107:12 *488:A2 6.5185e-05
6 *487:A2 *107:12 0
7 *572:RESET_B *107:12 2.72859e-05
8 *73:33 *107:12 0
9 *95:105 *485:B1 0.00014285
*RES
1 *572:Q *107:12 20.8893 
2 *107:12 *485:B1 10.6571 
3 *107:12 *623:A 9.3 
*END

*D_NET *108 0.00254251
*CONN
*I *638:A I *D sky130_fd_sc_hd__dlygate4sd3_1
*I *487:B1 I *D sky130_fd_sc_hd__a31o_1
*I *573:Q O *D sky130_fd_sc_hd__dfrtp_1
*CAP
1 *638:A 0.000242381
2 *487:B1 0.000444939
3 *573:Q 0.00011032
4 *108:6 0.00079764
5 *487:B1 *681:A 6.65302e-05
6 *487:B1 *148:62 3.69697e-05
7 *487:B1 *200:10 0.000307384
8 *638:A *488:A2 0.000150625
9 *638:A *488:B1 0
10 *638:A *537:A 5.71472e-05
11 *638:A *138:14 0
12 *108:6 *200:10 0.000186669
13 *487:A2 *638:A 0
14 *488:A1 *638:A 0
15 *572:RESET_B *638:A 7.03393e-05
16 *573:RESET_B *638:A 5.24274e-05
17 *96:119 *487:B1 1.91418e-05
*RES
1 *573:Q *108:6 11.0679 
2 *108:6 *487:B1 24.9964 
3 *108:6 *638:A 23.5321 
*END

*D_NET *109 0.00122761
*CONN
*I *631:A I *D sky130_fd_sc_hd__dlygate4sd3_1
*I *491:B1 I *D sky130_fd_sc_hd__a31o_1
*I *574:Q O *D sky130_fd_sc_hd__dfrtp_1
*CAP
1 *631:A 0.000116831
2 *491:B1 0.000112023
3 *574:Q 4.97566e-05
4 *109:10 0.00027861
5 *109:10 *492:B1 8.00806e-05
6 *491:A3 *491:B1 5.33334e-05
7 *494:A2 *491:B1 9.60939e-05
8 *494:A2 *631:A 0.000304153
9 *74:67 *491:B1 1.02936e-05
10 *87:37 *109:10 0.000126439
*RES
1 *574:Q *109:10 19.9429 
2 *109:10 *491:B1 11.4786 
3 *109:10 *631:A 12.3 
*END

*D_NET *110 0.00100551
*CONN
*I *493:B1 I *D sky130_fd_sc_hd__a31o_1
*I *652:A I *D sky130_fd_sc_hd__dlygate4sd3_1
*I *575:Q O *D sky130_fd_sc_hd__dfrtp_1
*CAP
1 *493:B1 0.000150293
2 *652:A 0
3 *575:Q 8.71537e-05
4 *110:12 0.000237447
5 *493:B1 *493:A2 5.52302e-05
6 *493:B1 *155:113 0
7 *110:12 *504:A 0.000129868
8 *110:12 *155:113 0
9 *494:A1 *110:12 3.69047e-06
10 *604:A *493:B1 1.90936e-05
11 *607:A *493:B1 5.33005e-05
12 *92:61 *493:B1 9.06697e-05
13 *92:61 *110:12 6.4382e-05
14 *92:65 *493:B1 5.01448e-05
15 *93:12 *493:B1 6.42338e-05
*RES
1 *575:Q *110:12 20.4786 
2 *110:12 *652:A 9.3 
3 *110:12 *493:B1 21.925 
*END

*D_NET *111 0.00132913
*CONN
*I *495:B1 I *D sky130_fd_sc_hd__a31o_1
*I *628:A I *D sky130_fd_sc_hd__dlygate4sd3_1
*I *576:Q O *D sky130_fd_sc_hd__dfrtp_1
*CAP
1 *495:B1 0
2 *628:A 0.000103841
3 *576:Q 0.000129487
4 *111:12 0.000233328
5 *628:A *496:B1 0.00014183
6 *628:A *155:71 0.00013925
7 *111:12 *495:A1 0.000125717
8 *111:12 *132:26 9.41642e-05
9 *496:A1 *628:A 0
10 *593:CLK *628:A 0.000228937
11 *91:110 *111:12 6.42145e-05
12 *93:33 *628:A 6.83624e-05
*RES
1 *576:Q *111:12 20.8893 
2 *111:12 *628:A 13.55 
3 *111:12 *495:B1 9.3 
*END

*D_NET *112 0.00291317
*CONN
*I *497:B1 I *D sky130_fd_sc_hd__a31o_1
*I *636:A I *D sky130_fd_sc_hd__dlygate4sd3_1
*I *577:Q O *D sky130_fd_sc_hd__dfrtp_1
*CAP
1 *497:B1 0.000441698
2 *636:A 0.000211285
3 *577:Q 0.000204239
4 *112:6 0.000857223
5 *497:B1 *497:A1 9.93955e-05
6 *636:A *503:D 5.33005e-05
7 *498:A1 *636:A 0.000178075
8 *499:A1 *497:B1 0.000119745
9 *499:A3 *497:B1 1.83053e-05
10 *499:A3 *636:A 4.75911e-05
11 *72:34 *497:B1 0
12 *73:14 *497:B1 0.000102362
13 *74:33 *497:B1 2.44609e-05
14 *74:33 *112:6 7.20621e-05
15 *87:12 *636:A 9.25014e-06
16 *91:72 *636:A 2.59355e-05
17 *91:84 *636:A 0.000448245
*RES
1 *577:Q *112:6 11.8893 
2 *112:6 *636:A 24.7286 
3 *112:6 *497:B1 25.5321 
*END

*D_NET *113 0.00115212
*CONN
*I *499:B1 I *D sky130_fd_sc_hd__a31o_1
*I *627:A I *D sky130_fd_sc_hd__dlygate4sd3_1
*I *578:Q O *D sky130_fd_sc_hd__dfrtp_1
*CAP
1 *499:B1 0.000154464
2 *627:A 0
3 *578:Q 4.2427e-05
4 *113:6 0.000196891
5 *499:B1 *152:26 8.42609e-05
6 *499:B1 *152:32 5.33005e-05
7 *499:B1 *152:52 9.241e-05
8 *499:B1 *152:54 5.37741e-06
9 *499:B1 *205:12 3.63281e-05
10 *113:6 *152:32 0.00018077
11 *578:RESET_B *499:B1 0.000125125
12 *578:RESET_B *113:6 0.00018077
*RES
1 *578:Q *113:6 11.0679 
2 *113:6 *627:A 9.3 
3 *113:6 *499:B1 22.2107 
*END

*D_NET *114 0.00160683
*CONN
*I *625:A I *D sky130_fd_sc_hd__dlygate4sd3_1
*I *501:B1 I *D sky130_fd_sc_hd__a31o_1
*I *579:Q O *D sky130_fd_sc_hd__dfrtp_1
*CAP
1 *625:A 0.000113872
2 *501:B1 0.000104001
3 *579:Q 8.81627e-05
4 *114:12 0.000306036
5 *501:B1 *152:24 0.000308562
6 *625:A *152:22 0.000169359
7 *625:A *152:24 9.60939e-05
8 *114:12 *504:A 0.000125731
9 *501:A1 *501:B1 5.49489e-05
10 *501:A3 *501:B1 1.98839e-05
11 *504:C *501:B1 9.50968e-06
12 *579:RESET_B *114:12 5.33005e-05
13 *604:A *114:12 0.00012401
14 *96:87 *501:B1 3.33598e-05
*RES
1 *579:Q *114:12 20.4786 
2 *114:12 *501:B1 12.3 
3 *114:12 *625:A 11.8893 
*END

*D_NET *115 0.00211168
*CONN
*I *626:A I *D sky130_fd_sc_hd__dlygate4sd3_1
*I *505:B1 I *D sky130_fd_sc_hd__a31o_1
*I *580:Q O *D sky130_fd_sc_hd__dfrtp_1
*CAP
1 *626:A 0.000370833
2 *505:B1 0.000190192
3 *580:Q 0
4 *115:4 0.000561026
5 *505:B1 *505:A1 0.000125731
6 *505:B1 *505:A2 6.65398e-05
7 *626:A *508:B1 1.0033e-05
8 *626:A *147:14 7.83587e-05
9 *626:A *154:47 2.36643e-05
10 *626:A *208:16 0.000371417
11 *85:35 *626:A 0.000200891
12 *85:37 *505:B1 9.3111e-05
13 *85:37 *626:A 1.98839e-05
*RES
1 *580:Q *115:4 9.3 
2 *115:4 *505:B1 21.7107 
3 *115:4 *626:A 24.5143 
*END

*D_NET *116 0.00220384
*CONN
*I *624:A I *D sky130_fd_sc_hd__dlygate4sd3_1
*I *508:B1 I *D sky130_fd_sc_hd__a31o_1
*I *581:Q O *D sky130_fd_sc_hd__dfrtp_1
*CAP
1 *624:A 0.000277908
2 *508:B1 0.000496567
3 *581:Q 0
4 *116:4 0.000774476
5 *508:B1 *509:B1 0
6 *508:B1 *147:14 3.58712e-05
7 *508:B1 *150:35 2.06112e-05
8 *508:B1 *154:47 2.16394e-05
9 *508:B1 *208:16 7.54868e-05
10 *624:A *509:B1 5.49544e-05
11 *624:A *154:35 8.66906e-05
12 *508:A3 *508:B1 0.000110808
13 *595:CLK *508:B1 0.000139949
14 *626:A *508:B1 1.0033e-05
15 *80:12 *508:B1 1.9774e-05
16 *85:33 *508:B1 5.79582e-06
17 *85:35 *508:B1 7.32756e-05
*RES
1 *581:Q *116:4 9.3 
2 *116:4 *508:B1 35.3179 
3 *116:4 *624:A 13.0321 
*END

*D_NET *117 0.00143351
*CONN
*I *629:A I *D sky130_fd_sc_hd__dlygate4sd3_1
*I *510:B1 I *D sky130_fd_sc_hd__a31o_1
*I *582:Q O *D sky130_fd_sc_hd__dfrtp_1
*CAP
1 *629:A 1.84647e-05
2 *510:B1 5.38786e-05
3 *582:Q 0.000150417
4 *117:10 0.000222761
5 *510:B1 *510:A1 9.90367e-05
6 *510:B1 *147:69 4.58976e-05
7 *510:B1 *150:97 0.000228558
8 *629:A *147:69 2.59355e-05
9 *629:A *150:97 4.08637e-05
10 *117:10 *514:A2 8.07879e-05
11 *117:10 *668:A 0
12 *117:10 *154:53 0.000237449
13 *93:41 *510:B1 0.000229456
*RES
1 *582:Q *117:10 21.4607 
2 *117:10 *510:B1 12.3 
3 *117:10 *629:A 9.83571 
*END

*D_NET *118 0.00141069
*CONN
*I *632:A I *D sky130_fd_sc_hd__dlygate4sd3_1
*I *512:B1 I *D sky130_fd_sc_hd__a31o_1
*I *583:Q O *D sky130_fd_sc_hd__dfrtp_1
*CAP
1 *632:A 5.77564e-05
2 *512:B1 0.000166747
3 *583:Q 5.85643e-05
4 *118:6 0.000283068
5 *512:B1 *514:A2 1.82029e-05
6 *512:B1 *518:B 3.99614e-06
7 *512:B1 *147:37 3.97677e-05
8 *512:B1 *150:47 2.24646e-05
9 *512:B1 *150:53 0.000191403
10 *512:B1 *154:53 5.2177e-05
11 *632:A *546:A 5.49544e-05
12 *632:A *583:D 0.000139208
13 *118:6 *583:D 0.000140933
14 *512:A3 *512:B1 5.7616e-05
15 *582:RESET_B *632:A 2.96677e-05
16 *94:20 *512:B1 9.41642e-05
*RES
1 *583:Q *118:6 10.6571 
2 *118:6 *512:B1 22.5321 
3 *118:6 *632:A 11.0679 
*END

*D_NET *119 0.00236322
*CONN
*I *630:A I *D sky130_fd_sc_hd__dlygate4sd3_1
*I *514:B1 I *D sky130_fd_sc_hd__a31o_1
*I *584:Q O *D sky130_fd_sc_hd__dfrtp_1
*CAP
1 *630:A 0.000204634
2 *514:B1 0.000576861
3 *584:Q 0
4 *119:4 0.000781494
5 *514:B1 *514:A2 5.17614e-05
6 *514:B1 *548:A 0
7 *514:B1 *584:D 0.000160838
8 *514:B1 *154:78 0.000137771
9 *630:A *517:B1 9.31595e-05
10 *584:RESET_B *514:B1 0.000315179
11 *95:62 *514:B1 4.15183e-05
*RES
1 *584:Q *119:4 9.3 
2 *119:4 *514:B1 27.9607 
3 *119:4 *630:A 13.0321 
*END

*D_NET *120 0.00199482
*CONN
*I *637:A I *D sky130_fd_sc_hd__dlygate4sd3_1
*I *516:B1 I *D sky130_fd_sc_hd__a31o_1
*I *585:Q O *D sky130_fd_sc_hd__dfrtp_1
*CAP
1 *637:A 0.000242115
2 *516:B1 0.000440424
3 *585:Q 0.000120688
4 *120:8 0.000803227
5 *516:B1 *516:A1 1.60759e-05
6 *516:B1 *516:A2 0.000335542
7 *516:B1 *564:A 0
8 *637:A *564:A 0
9 *637:A *600:D 0
10 seg2[5] *516:B1 3.61629e-06
11 *516:A3 *516:B1 0
12 *516:A3 *637:A 0
13 *600:RESET_B *516:B1 2.8266e-06
14 *600:RESET_B *637:A 3.0305e-05
15 *96:32 *637:A 0
*RES
1 *585:Q *120:8 15.1571 
2 *120:8 *516:B1 20.9071 
3 *120:8 *637:A 17.8714 
*END

*D_NET *121 0.00166196
*CONN
*I *647:A I *D sky130_fd_sc_hd__dlygate4sd3_1
*I *520:B1 I *D sky130_fd_sc_hd__a31o_1
*I *586:Q O *D sky130_fd_sc_hd__dfrtp_1
*CAP
1 *647:A 0
2 *520:B1 0.000252606
3 *586:Q 0.000199738
4 *121:16 0.000452344
5 *520:B1 *523:A1 0.000422164
6 *520:B1 *523:B1 0
7 *520:B1 *672:A 0.000126439
8 *520:B1 *151:79 0
9 *520:B1 *153:84 0
10 *121:16 *587:D 9.90367e-05
11 *121:16 *153:84 0
12 *524:A1 *121:16 0
13 *586:RESET_B *121:16 5.62995e-05
14 *92:20 *121:16 5.33334e-05
*RES
1 *586:Q *121:16 21.9607 
2 *121:16 *520:B1 24.2643 
3 *121:16 *647:A 9.3 
*END

*D_NET *122 0.000886117
*CONN
*I *523:B1 I *D sky130_fd_sc_hd__a31o_1
*I *644:A I *D sky130_fd_sc_hd__dlygate4sd3_1
*I *587:Q O *D sky130_fd_sc_hd__dfrtp_1
*CAP
1 *523:B1 0.000160344
2 *644:A 0
3 *587:Q 0.000134528
4 *122:10 0.000294872
5 *523:B1 *524:B1 3.93893e-05
6 *122:10 *156:115 4.01768e-05
7 *520:B1 *523:B1 0
8 *524:A1 *523:B1 5.52238e-05
9 *524:A2 *523:B1 0
10 *586:RESET_B *523:B1 3.34295e-05
11 *586:RESET_B *122:10 0.000128154
*RES
1 *587:Q *122:10 16.3893 
2 *122:10 *644:A 13.8 
3 *122:10 *523:B1 16.8893 
*END

*D_NET *123 0.00125147
*CONN
*I *649:A I *D sky130_fd_sc_hd__dlygate4sd3_1
*I *525:B1 I *D sky130_fd_sc_hd__a31o_1
*I *588:Q O *D sky130_fd_sc_hd__dfrtp_1
*CAP
1 *649:A 0.000177932
2 *525:B1 0.000281318
3 *588:Q 0
4 *123:4 0.00045925
5 *525:B1 *525:A2 5.80706e-06
6 *525:B1 *526:B1 7.07908e-05
7 *525:B1 *673:A 0
8 *649:A *522:B1 2.59355e-05
9 *520:A3 *525:B1 7.73758e-05
10 *588:RESET_B *525:B1 0
11 *596:RESET_B *649:A 1.21258e-05
12 *88:93 *525:B1 0
13 *92:12 *525:B1 0
14 *92:20 *649:A 0.000140933
*RES
1 *588:Q *123:4 9.3 
2 *123:4 *525:B1 24.1214 
3 *123:4 *649:A 12.7107 
*END

*D_NET *124 0.00124816
*CONN
*I *622:A I *D sky130_fd_sc_hd__dlygate4sd3_1
*I *527:B1 I *D sky130_fd_sc_hd__a31o_1
*I *589:Q O *D sky130_fd_sc_hd__dfrtp_1
*CAP
1 *622:A 1.88267e-05
2 *527:B1 0.000133016
3 *589:Q 0.000113839
4 *124:10 0.000265681
5 *527:B1 *528:B1 0.000113073
6 *527:B1 *151:69 5.52238e-05
7 *527:B1 *157:43 0.00048746
8 *622:A *157:43 5.52302e-05
9 *124:10 *153:34 0
10 *124:10 *156:115 0
11 *527:A3 *124:10 0
12 *532:A1 *124:10 5.80706e-06
13 *589:RESET_B *124:10 0
*RES
1 *589:Q *124:10 20.2464 
2 *124:10 *527:B1 13.9429 
3 *124:10 *622:A 9.83571 
*END

*D_NET *125 0.00280233
*CONN
*I *650:A I *D sky130_fd_sc_hd__dlygate4sd3_1
*I *529:B1 I *D sky130_fd_sc_hd__a31o_1
*I *590:Q O *D sky130_fd_sc_hd__dfrtp_1
*CAP
1 *650:A 8.41349e-05
2 *529:B1 0.000288547
3 *590:Q 6.80623e-05
4 *125:10 0.000440744
5 *529:B1 *521:D 5.52238e-05
6 *529:B1 *531:A1 0.000114467
7 *529:B1 *531:A2 0.000338719
8 *529:B1 *554:A 0.00022459
9 *529:B1 *555:A 0.000135028
10 *529:B1 *675:A 4.35367e-05
11 *529:B1 *676:A 0.00043289
12 *529:B1 *151:44 3.18676e-05
13 *650:A *555:A 8.46829e-05
14 *650:A *676:A 5.52302e-05
15 *125:10 *555:A 8.15939e-05
16 *529:A3 *529:B1 9.71197e-05
17 *532:A1 *529:B1 5.03772e-05
18 *591:RESET_B *125:10 0.000175512
*RES
1 *590:Q *125:10 20.55 
2 *125:10 *529:B1 18.8893 
3 *125:10 *650:A 11.0857 
*END

*D_NET *126 0.00203787
*CONN
*I *633:A I *D sky130_fd_sc_hd__dlygate4sd3_1
*I *531:B1 I *D sky130_fd_sc_hd__a31o_1
*I *591:Q O *D sky130_fd_sc_hd__dfrtp_1
*CAP
1 *633:A 0.000231619
2 *531:B1 0.000626214
3 *591:Q 0
4 *126:4 0.000857833
5 *531:B1 *531:A2 2.84398e-05
6 *531:B1 *591:D 7.15962e-05
7 *633:A *621:A 0
8 *633:A *676:A 5.83304e-05
9 seg3[5] *633:A 4.58835e-05
10 *529:A3 *531:B1 4.46186e-06
11 *590:CLK *531:B1 0
12 *591:RESET_B *531:B1 8.79458e-05
13 *82:25 *531:B1 2.55516e-05
*RES
1 *591:Q *126:4 9.3 
2 *126:4 *531:B1 26.2286 
3 *126:4 *633:A 22.4071 
*END

*D_NET *127 0.00724805
*CONN
*I *474:D_N I *D sky130_fd_sc_hd__nor4b_1
*I *521:B I *D sky130_fd_sc_hd__and4b_2
*I *471:C I *D sky130_fd_sc_hd__and4bb_2
*I *506:C I *D sky130_fd_sc_hd__and4bb_2
*I *603:D I *D sky130_fd_sc_hd__dfrtp_1
*I *473:B I *D sky130_fd_sc_hd__and4b_1
*I *653:X O *D sky130_fd_sc_hd__buf_1
*CAP
1 *474:D_N 2.23854e-05
2 *521:B 5.43395e-05
3 *471:C 0.000114094
4 *506:C 3.92213e-05
5 *603:D 0.000128359
6 *473:B 8.91844e-05
7 *653:X 0.000653289
8 *127:57 0.000327558
9 *127:44 0.000304849
10 *127:20 0.000493385
11 *127:14 0.000623383
12 *127:12 0.000916714
13 *471:C *471:A_N 0.000176328
14 *471:C *152:14 0.000181608
15 *506:C *474:B 5.52302e-05
16 *521:B *471:A_N 0.000212153
17 *127:12 *477:A1 0.000178847
18 *127:12 *621:A 0
19 *127:12 *678:A 0.000230482
20 *127:12 *148:79 0.000181803
21 *127:12 *156:44 0.000241492
22 *471:B_N *471:C 0.000416837
23 *473:A_N *473:B 0.000125731
24 *473:A_N *603:D 6.38892e-05
25 *473:A_N *127:14 2.27812e-05
26 *473:A_N *127:20 2.98161e-05
27 *474:C *127:14 0.000229456
28 *476:B1 *473:B 2.04825e-05
29 *476:B1 *603:D 5.66157e-05
30 *476:B1 *127:44 0
31 *476:B1 *127:57 0
32 *529:A3 *127:12 0.000151215
33 *530:A1 *127:12 0.000215102
34 *530:A2 *127:12 1.74352e-05
35 *591:RESET_B *127:12 9.99644e-06
36 *603:RESET_B *127:14 1.21389e-05
37 *616:A *471:C 5.52238e-05
38 *616:A *521:B 0.000180777
39 *653:A *127:12 5.33882e-05
40 *655:A *127:12 8.07313e-05
41 *655:A *127:14 6.87574e-05
42 *84:10 *473:B 0
43 *91:149 *473:B 3.47641e-06
44 *93:93 *473:B 0
45 *93:93 *127:44 9.01238e-05
46 *93:93 *127:57 0.000119374
*RES
1 *653:X *127:12 32.4964 
2 *127:12 *127:14 4.64286 
3 *127:14 *127:20 7.92857 
4 *127:20 *473:B 15.7464 
5 *127:20 *603:D 16.3 
6 *127:14 *127:44 6.75 
7 *127:44 *506:C 14.3357 
8 *127:44 *127:57 7.66071 
9 *127:57 *471:C 14.4964 
10 *127:57 *521:B 11.4786 
11 *127:12 *474:D_N 9.72857 
*END

*D_NET *128 0.00164317
*CONN
*I *660:A I *D sky130_fd_sc_hd__buf_2
*I *493:X O *D sky130_fd_sc_hd__a31o_1
*CAP
1 *660:A 0.000592233
2 *493:X 0.000592233
3 *660:A *504:A 8.56812e-05
4 *660:A *504:B 9.91086e-05
5 *660:A *575:D 0.000216771
6 *607:A *660:A 5.71472e-05
*RES
1 *493:X *660:A 39.4929 
*END

*D_NET *129 0.00103047
*CONN
*I *661:A I *D sky130_fd_sc_hd__buf_2
*I *495:X O *D sky130_fd_sc_hd__a31o_1
*CAP
1 *661:A 0.000375648
2 *495:X 0.000375648
3 *661:A *496:B1 3.48705e-05
4 *661:A *540:A 0
5 *661:A *541:A 8.90314e-05
6 *661:A *155:71 5.7256e-05
7 *496:A1 *661:A 9.80173e-05
*RES
1 *495:X *661:A 25.6179 
*END

*D_NET *130 0.00164313
*CONN
*I *662:A I *D sky130_fd_sc_hd__buf_2
*I *497:X O *D sky130_fd_sc_hd__a31o_1
*CAP
1 *662:A 0.000410384
2 *497:X 0.000410384
3 *662:A *665:A 0.000186662
4 seg2[0] *662:A 4.01768e-05
5 *73:14 *662:A 0.000137505
6 *91:84 *662:A 0.00040279
7 *94:37 *662:A 5.52302e-05
*RES
1 *497:X *662:A 28.6 
*END

*D_NET *131 0.0023403
*CONN
*I *663:A I *D sky130_fd_sc_hd__buf_2
*I *499:X O *D sky130_fd_sc_hd__a31o_1
*CAP
1 *663:A 0.000785321
2 *499:X 0.000785321
3 *577:CLK *663:A 6.65302e-05
4 *577:RESET_B *663:A 0.000349019
5 *74:33 *663:A 0.000354105
*RES
1 *499:X *663:A 38.8143 
*END

*D_NET *132 0.00373506
*CONN
*I *664:A I *D sky130_fd_sc_hd__buf_2
*I *501:X O *D sky130_fd_sc_hd__a31o_1
*CAP
1 *664:A 0
2 *501:X 0.00142637
3 *132:26 0.00142637
4 *132:26 *503:A 0
5 *132:26 *576:D 0.000119135
6 *132:26 *148:140 0.000354311
7 *132:26 *152:26 9.77414e-05
8 *132:26 *206:14 0.000121842
9 *576:RESET_B *132:26 2.56601e-05
10 *578:RESET_B *132:26 6.94781e-05
11 *87:8 *132:26 0
12 *87:12 *132:26 0
13 *87:49 *132:26 0
14 *111:12 *132:26 9.41642e-05
*RES
1 *501:X *132:26 45.55 
2 *132:26 *664:A 13.8 
*END

*D_NET *133 0.000524859
*CONN
*I *665:A I *D sky130_fd_sc_hd__buf_2
*I *505:X O *D sky130_fd_sc_hd__a31o_1
*CAP
1 *665:A 0.000169098
2 *505:X 0.000169098
3 *662:A *665:A 0.000186662
4 *91:84 *665:A 0
*RES
1 *505:X *665:A 31.0107 
*END

*D_NET *134 0.00229233
*CONN
*I *666:A I *D sky130_fd_sc_hd__buf_2
*I *508:X O *D sky130_fd_sc_hd__a31o_1
*CAP
1 *666:A 0.000841266
2 *508:X 0.000841266
3 *666:A *469:A 3.14163e-05
4 *666:A *505:A1 4.87854e-05
5 *666:A *519:B 2.49484e-05
6 *666:A *581:D 4.66203e-05
7 *666:A *154:53 0.000123295
8 *505:A3 *666:A 2.95726e-05
9 *507:A1 *666:A 1.21258e-05
10 *511:A2 *666:A 1.33343e-05
11 *581:CLK *666:A 0.000125731
12 *80:55 *666:A 8.56752e-05
13 *93:41 *666:A 6.82922e-05
*RES
1 *508:X *666:A 41.9214 
*END

*D_NET *135 0.000851106
*CONN
*I *667:A I *D sky130_fd_sc_hd__buf_2
*I *510:X O *D sky130_fd_sc_hd__a31o_1
*CAP
1 *667:A 0.000203962
2 *510:X 0.000203962
3 *667:A *511:B1 7.79781e-06
4 *667:A *519:B 4.00025e-05
5 *667:A *580:D 5.71472e-05
6 *667:A *207:8 5.62817e-05
7 *667:A *209:10 9.04846e-05
8 *511:A1 *667:A 0.00012501
9 *519:C *667:A 6.04072e-05
10 *594:D *667:A 6.05161e-06
*RES
1 *510:X *667:A 32.5464 
*END

*D_NET *136 0.00189803
*CONN
*I *668:A I *D sky130_fd_sc_hd__buf_2
*I *512:X O *D sky130_fd_sc_hd__a31o_1
*CAP
1 *668:A 0.000802359
2 *512:X 0.000802359
3 *668:A *510:A1 9.90367e-05
4 *668:A *510:A2 5.62995e-05
5 *668:A *514:A2 4.58194e-05
6 *668:A *518:A 8.00315e-05
7 *668:A *209:10 0
8 *93:41 *668:A 1.21289e-05
9 *117:10 *668:A 0
*RES
1 *512:X *668:A 37.8321 
*END

*D_NET *137 0.000266467
*CONN
*I *669:A I *D sky130_fd_sc_hd__buf_2
*I *514:X O *D sky130_fd_sc_hd__a31o_1
*CAP
1 *669:A 9.40508e-05
2 *514:X 9.40508e-05
3 *669:A *516:A1 0
4 *669:A *548:A 0
5 seg0[6] *669:A 0
6 *584:RESET_B *669:A 7.83659e-05
*RES
1 *514:X *669:A 29.5464 
*END

*D_NET *138 0.00959238
*CONN
*I *621:A I *D sky130_fd_sc_hd__clkbuf_4
*I *619:A I *D sky130_fd_sc_hd__clkbuf_4
*I *620:A I *D sky130_fd_sc_hd__buf_4
*I *654:X O *D sky130_fd_sc_hd__buf_1
*CAP
1 *621:A 0.000899876
2 *619:A 0.0013136
3 *620:A 0
4 *654:X 0.000419519
5 *138:23 0.00228936
6 *138:14 0.000495405
7 *619:A *482:A2 0.000566245
8 *619:A *486:A2 3.22772e-05
9 *619:A *486:B1 1.92789e-05
10 *619:A *146:25 0.000484524
11 *619:A *146:34 3.14078e-05
12 *619:A *197:10 9.6162e-05
13 *621:A *530:B1 0.000317602
14 *621:A *676:A 9.11365e-06
15 *621:A *677:A 0
16 *621:A *156:28 5.35423e-05
17 *621:A *156:34 0
18 *621:A *156:115 0
19 *621:A *157:10 0.000504613
20 *138:14 *488:A2 0
21 *138:14 *488:B1 2.92904e-05
22 *138:14 *156:10 8.59039e-05
23 *138:14 *200:10 5.38072e-05
24 *138:23 *156:10 1.41706e-05
25 *138:23 *156:28 8.17615e-05
26 *477:B1 *621:A 0.000175038
27 *478:A1 *621:A 0.000197609
28 *486:A1 *619:A 9.00795e-06
29 *524:A2 *621:A 7.92975e-05
30 *530:A2 *621:A 0.000184307
31 *568:RESET_B *621:A 0.000100823
32 *573:RESET_B *138:14 0
33 *591:RESET_B *621:A 0.00019506
34 *633:A *621:A 0
35 *638:A *138:14 0
36 *653:A *621:A 0
37 *654:A *138:14 0
38 *95:105 *138:14 9.25014e-06
39 *95:105 *138:23 0.000117189
40 *95:118 *621:A 0.000444717
41 *95:118 *138:23 0.000131297
42 *103:10 *621:A 0.000151333
43 *127:12 *621:A 0
*RES
1 *654:X *138:14 21.0143 
2 *138:14 *620:A 13.8 
3 *138:14 *138:23 3.16071 
4 *138:23 *619:A 32.3357 
5 *138:23 *621:A 39.2643 
*END

*D_NET *139 0.000127048
*CONN
*I *670:A I *D sky130_fd_sc_hd__buf_2
*I *516:X O *D sky130_fd_sc_hd__a31o_1
*CAP
1 *670:A 2.96584e-05
2 *516:X 2.96584e-05
3 *670:A *516:A1 0
4 *670:A *516:A2 3.58638e-05
5 seg2[5] *670:A 3.18676e-05
*RES
1 *516:X *670:A 19.5643 
*END

*D_NET *140 0.000322806
*CONN
*I *671:A I *D sky130_fd_sc_hd__buf_2
*I *520:X O *D sky130_fd_sc_hd__a31o_1
*CAP
1 *671:A 0.000150032
2 *520:X 0.000150032
3 seg3[0] *671:A 2.27416e-05
*RES
1 *520:X *671:A 30.1893 
*END

*D_NET *141 0.000874262
*CONN
*I *672:A I *D sky130_fd_sc_hd__buf_2
*I *523:X O *D sky130_fd_sc_hd__a31o_1
*CAP
1 *672:A 0.000299564
2 *523:X 0.000299564
3 *672:A *523:A1 6.8646e-06
4 *672:A *523:A2 0.00014183
5 *672:A *151:79 0
6 *520:B1 *672:A 0.000126439
*RES
1 *523:X *672:A 33.0286 
*END

*D_NET *142 0.00122812
*CONN
*I *673:A I *D sky130_fd_sc_hd__buf_2
*I *525:X O *D sky130_fd_sc_hd__a31o_1
*CAP
1 *673:A 0.000393627
2 *525:X 0.000393627
3 *673:A *597:D 0.000178222
4 *525:B1 *673:A 0
5 *588:RESET_B *673:A 9.80029e-05
6 *88:93 *673:A 0.000107494
7 *92:61 *673:A 5.71472e-05
*RES
1 *525:X *673:A 37.0643 
*END

*D_NET *143 0.00124554
*CONN
*I *674:A I *D sky130_fd_sc_hd__buf_2
*I *527:X O *D sky130_fd_sc_hd__a31o_1
*CAP
1 *674:A 0.00057974
2 *527:X 0.00057974
3 *674:A *153:34 4.46186e-06
4 *674:A *153:84 8.15939e-05
*RES
1 *527:X *674:A 37.475 
*END

*D_NET *144 0.00158485
*CONN
*I *675:A I *D sky130_fd_sc_hd__buf_2
*I *529:X O *D sky130_fd_sc_hd__a31o_1
*CAP
1 *675:A 0.00057455
2 *529:X 0.00057455
3 *675:A *531:A1 0.000139913
4 *529:B1 *675:A 4.35367e-05
5 *532:A1 *675:A 0.00010096
6 *590:RESET_B *675:A 0.00015134
7 *96:54 *675:A 0
*RES
1 *529:X *675:A 37.6179 
*END

*D_NET *145 0.00144226
*CONN
*I *676:A I *D sky130_fd_sc_hd__buf_2
*I *531:X O *D sky130_fd_sc_hd__a31o_1
*CAP
1 *676:A 0.000419443
2 *531:X 0.000419443
3 *529:B1 *676:A 0.00043289
4 *591:RESET_B *676:A 4.78056e-05
5 *621:A *676:A 9.11365e-06
6 *633:A *676:A 5.83304e-05
7 *650:A *676:A 5.52302e-05
*RES
1 *531:X *676:A 33.8857 
*END

*D_NET *146 0.00832199
*CONN
*I *480:A2 I *D sky130_fd_sc_hd__a21o_1
*I *486:A2 I *D sky130_fd_sc_hd__a21o_1
*I *478:A2 I *D sky130_fd_sc_hd__a21o_1
*I *488:A2 I *D sky130_fd_sc_hd__a21o_1
*I *484:A2 I *D sky130_fd_sc_hd__a21o_1
*I *482:A2 I *D sky130_fd_sc_hd__a21o_1
*I *655:X O *D sky130_fd_sc_hd__clkbuf_2
*CAP
1 *480:A2 2.86342e-05
2 *486:A2 9.17534e-05
3 *478:A2 0.000612427
4 *488:A2 0.000542361
5 *484:A2 0
6 *482:A2 0.000191412
7 *655:X 5.9285e-05
8 *146:36 0.00115479
9 *146:34 0.000156741
10 *146:25 0.000207624
11 *146:12 0.000606707
12 *146:8 0.000360579
13 *478:A2 *486:B1 1.52978e-05
14 *478:A2 *156:34 4.57352e-05
15 *478:A2 *195:6 9.66804e-05
16 *480:A2 *147:182 8.55976e-05
17 *482:A2 *197:10 8.68479e-05
18 *482:A2 *198:12 2.97829e-05
19 *486:A2 *486:B1 5.52238e-05
20 *488:A2 *486:B1 5.33882e-05
21 *488:A2 *199:12 7.83659e-05
22 *488:A2 *200:10 7.78347e-05
23 *146:8 *156:52 0.000188304
24 *146:12 *156:52 0.000358225
25 *146:25 *484:B1 7.61932e-05
26 *146:25 *198:12 9.22103e-06
27 *479:A3 *480:A2 1.98839e-05
28 *484:A1 *146:12 0.000221156
29 *484:A1 *146:25 9.58624e-05
30 *486:A1 *486:A2 5.71472e-05
31 *487:A2 *488:A2 0
32 *490:C *146:12 0.00028855
33 *568:RESET_B *478:A2 0.000130284
34 *573:RESET_B *488:A2 4.85567e-05
35 *619:A *482:A2 0.000566245
36 *619:A *486:A2 3.22772e-05
37 *619:A *146:25 0.000484524
38 *619:A *146:34 3.14078e-05
39 *638:A *488:A2 0.000150625
40 *73:33 *478:A2 0
41 *73:33 *488:A2 0
42 *86:16 *482:A2 9.92409e-05
43 *86:99 *146:12 1.46624e-05
44 *86:116 *146:12 6.8646e-06
45 *92:126 *480:A2 5.52238e-05
46 *94:117 *146:8 0.000196927
47 *94:117 *146:12 0.000488363
48 *95:105 *488:A2 0
49 *95:118 *478:A2 0
50 *107:12 *488:A2 6.5185e-05
51 *138:14 *488:A2 0
*RES
1 *655:X *146:8 16.3536 
2 *146:8 *146:12 13.7321 
3 *146:12 *482:A2 15.4964 
4 *146:12 *146:25 5.375 
5 *146:25 *484:A2 9.3 
6 *146:25 *146:34 1.375 
7 *146:34 *146:36 4.5 
8 *146:36 *488:A2 23.7286 
9 *146:36 *478:A2 23.0321 
10 *146:34 *486:A2 11.4964 
11 *146:8 *480:A2 14.7464 
*END

*D_NET *147 0.0210452
*CONN
*I *477:A2 I *D sky130_fd_sc_hd__a31o_1
*I *479:A2 I *D sky130_fd_sc_hd__a31o_1
*I *483:A2 I *D sky130_fd_sc_hd__a31o_1
*I *481:A2 I *D sky130_fd_sc_hd__a31o_1
*I *516:A2 I *D sky130_fd_sc_hd__a31o_1
*I *505:A2 I *D sky130_fd_sc_hd__a31o_1
*I *510:A2 I *D sky130_fd_sc_hd__a31o_1
*I *514:A2 I *D sky130_fd_sc_hd__a31o_1
*I *512:A2 I *D sky130_fd_sc_hd__a31o_1
*I *508:A2 I *D sky130_fd_sc_hd__a31o_1
*I *612:X O *D sky130_fd_sc_hd__buf_2
*CAP
1 *477:A2 0.000304067
2 *479:A2 0
3 *483:A2 0
4 *481:A2 1.7588e-05
5 *516:A2 0.000620314
6 *505:A2 0.000351942
7 *510:A2 0.000106789
8 *514:A2 0.00071055
9 *512:A2 0
10 *508:A2 0.000101002
11 *612:X 0.000503116
12 *147:182 0.000868278
13 *147:125 0.000982491
14 *147:109 0.000832751
15 *147:107 0.00292269
16 *147:69 0.000772131
17 *147:63 0.00218372
18 *147:37 0.000970511
19 *147:29 0.000305179
20 *147:14 0.000649336
21 *477:A2 *477:A1 0.000392026
22 *477:A2 *479:A1 6.58033e-05
23 *477:A2 *480:B1 8.48081e-05
24 *481:A2 *481:A1 3.70968e-05
25 *481:A2 *679:A 0
26 *505:A2 *505:A1 0.000170685
27 *505:A2 *511:B1 7.29922e-05
28 *505:A2 *580:D 0
29 *508:A2 *507:B1 8.6229e-06
30 *510:A2 *510:A1 3.99614e-06
31 *510:A2 *511:B1 9.90367e-05
32 *514:A2 *516:A1 1.19402e-05
33 *514:A2 *518:A 0.00013589
34 *514:A2 *518:B 0
35 *514:A2 *150:53 0
36 *514:A2 *150:57 7.39637e-05
37 *514:A2 *154:53 0.000133253
38 *516:A2 *481:A1 2.34518e-05
39 *147:14 *469:A 9.61162e-05
40 *147:14 *507:B1 6.99206e-05
41 *147:14 *509:B1 0
42 *147:14 *150:35 6.37883e-06
43 *147:14 *150:43 4.32309e-05
44 *147:14 *154:47 0
45 *147:14 *208:16 1.41029e-05
46 *147:29 *150:43 0.000113119
47 *147:37 *518:A 0.000139208
48 *147:37 *518:C 0
49 *147:37 *150:43 0.000128875
50 *147:37 *150:47 0.00012026
51 *147:37 *150:53 3.34366e-05
52 *147:69 *511:B1 9.71197e-05
53 *147:69 *150:97 3.98662e-05
54 *147:107 *154:21 0.000137558
55 *147:109 *570:D 3.22834e-05
56 *147:109 *148:33 0.000148189
57 *147:109 *156:58 5.74562e-05
58 *147:125 *481:A1 5.09225e-05
59 *147:125 *534:A 6.88943e-05
60 *147:125 *679:A 3.18676e-05
61 *147:125 *680:A 9.91086e-05
62 *147:125 *681:A 0
63 *147:125 *148:33 1.02504e-05
64 *147:125 *148:49 0
65 *147:182 *480:B1 1.21258e-05
66 *147:182 *148:75 1.94879e-05
67 *147:182 *150:21 9.90431e-05
68 *147:182 *156:52 0
69 *147:182 *196:10 2.89114e-05
70 seg0[2] *516:A2 1.11843e-05
71 seg0[3] *147:125 0.000178847
72 seg2[5] *516:A2 6.62761e-05
73 *473:C *147:107 3.61629e-06
74 *475:A1 *147:107 4.62429e-05
75 *475:A1 *147:182 0
76 *475:A2 *147:182 0
77 *479:A3 *147:182 5.74499e-06
78 *479:B1 *477:A2 0.000278944
79 *479:B1 *147:182 0
80 *480:A2 *147:182 8.55976e-05
81 *481:A3 *147:125 5.71472e-05
82 *483:A3 *147:109 0.000812524
83 *483:A3 *147:125 1.18539e-05
84 *505:B1 *505:A2 6.65398e-05
85 *508:A3 *508:A2 2.59355e-05
86 *508:B1 *147:14 3.58712e-05
87 *510:B1 *147:69 4.58976e-05
88 *511:A1 *505:A2 0
89 *511:A2 *505:A2 5.7133e-05
90 *512:B1 *514:A2 1.82029e-05
91 *512:B1 *147:37 3.97677e-05
92 *514:B1 *514:A2 5.17614e-05
93 *516:B1 *516:A2 0.000335542
94 *582:RESET_B *514:A2 5.26184e-05
95 *583:RESET_B *514:A2 0
96 *592:RESET_B *147:107 3.8524e-05
97 *592:RESET_B *147:109 7.83587e-05
98 *592:RESET_B *147:182 0.000106403
99 *594:RESET_B *147:107 8.15485e-05
100 *605:A *147:69 5.84661e-05
101 *605:A *147:107 0.00020943
102 *606:A *147:109 7.79781e-06
103 *626:A *147:14 7.83587e-05
104 *629:A *147:69 2.59355e-05
105 *668:A *510:A2 5.62995e-05
106 *668:A *514:A2 4.58194e-05
107 *670:A *516:A2 3.58638e-05
108 *73:14 *147:14 0.000185124
109 *73:33 *147:182 1.90936e-05
110 *80:55 *508:A2 2.08721e-05
111 *80:55 *147:107 1.57848e-05
112 *85:14 *147:107 5.64052e-05
113 *86:16 *147:109 0
114 *86:20 *147:109 0.000116481
115 *86:26 *147:109 0.000247771
116 *86:99 *147:109 0
117 *86:116 *147:109 0
118 *91:149 *147:182 0.000209464
119 *92:126 *147:182 0.000143635
120 *93:41 *510:A2 0.00020192
121 *93:41 *147:69 0.000214198
122 *93:93 *147:109 0
123 *93:93 *147:182 0
124 *94:20 *514:A2 1.98839e-05
125 *94:20 *147:37 1.46231e-05
126 *94:37 *508:A2 4.75152e-06
127 *94:37 *147:14 7.63376e-05
128 *94:37 *147:29 3.21916e-05
129 *94:37 *147:37 4.38604e-05
130 *94:117 *147:182 1.05524e-05
131 *96:54 *147:182 7.69776e-06
132 *117:10 *514:A2 8.07879e-05
*RES
1 *612:X *147:14 23.5946 
2 *147:14 *508:A2 15.5589 
3 *147:14 *147:29 1.49107 
4 *147:29 *147:37 9.85714 
5 *147:37 *512:A2 9.3 
6 *147:37 *514:A2 33.55 
7 *147:29 *147:63 4.5 
8 *147:63 *147:69 6.01786 
9 *147:69 *510:A2 12.7464 
10 *147:69 *505:A2 25.7643 
11 *147:63 *147:107 36.9643 
12 *147:107 *147:109 14.0893 
13 *147:109 *147:125 12.3214 
14 *147:125 *516:A2 22.05 
15 *147:125 *481:A2 10.2643 
16 *147:109 *483:A2 13.8 
17 *147:107 *147:182 29.8696 
18 *147:182 *479:A2 9.3 
19 *147:182 *477:A2 16.5679 
*END

*D_NET *148 0.021452
*CONN
*I *483:A1 I *D sky130_fd_sc_hd__a31o_1
*I *493:A1 I *D sky130_fd_sc_hd__a31o_1
*I *491:A1 I *D sky130_fd_sc_hd__a31o_1
*I *495:A1 I *D sky130_fd_sc_hd__a31o_1
*I *497:A1 I *D sky130_fd_sc_hd__a31o_1
*I *477:A1 I *D sky130_fd_sc_hd__a31o_1
*I *479:A1 I *D sky130_fd_sc_hd__a31o_1
*I *485:A1 I *D sky130_fd_sc_hd__a31o_1
*I *487:A1 I *D sky130_fd_sc_hd__a31o_1
*I *481:A1 I *D sky130_fd_sc_hd__a31o_1
*I *613:X O *D sky130_fd_sc_hd__buf_2
*CAP
1 *483:A1 0
2 *493:A1 6.56682e-05
3 *491:A1 7.62384e-05
4 *495:A1 8.18501e-05
5 *497:A1 0.00041854
6 *477:A1 0.000336852
7 *479:A1 9.2623e-05
8 *485:A1 9.92161e-05
9 *487:A1 2.70491e-05
10 *481:A1 0.000221781
11 *613:X 0
12 *148:140 0.000607092
13 *148:136 0.00101282
14 *148:117 0.00251458
15 *148:79 0.000559943
16 *148:75 0.00228464
17 *148:62 0.000878715
18 *148:49 0.000650717
19 *148:33 0.000640833
20 *148:4 0.00046216
21 *477:A1 *678:A 6.09476e-05
22 *479:A1 *480:B1 2.24969e-05
23 *481:A1 *534:A 0.00033763
24 *481:A1 *679:A 6.11433e-05
25 *487:A1 *682:A 0
26 *491:A1 *491:A2 0.000162345
27 *493:A1 *493:A2 5.33005e-05
28 *495:A1 *491:A2 0.00021853
29 *495:A1 *152:32 1.02504e-05
30 *148:33 *570:D 0.000101545
31 *148:49 *680:A 0
32 *148:49 *681:A 0.000151468
33 *148:62 *489:D 0.000193156
34 *148:62 *681:A 0
35 *148:75 *489:D 2.16719e-05
36 *148:75 *490:A 5.83304e-05
37 *148:75 *490:B 9.56968e-05
38 *148:75 *196:10 7.09775e-05
39 *148:136 *504:B 0.000240159
40 seg0[2] *481:A1 0.000360894
41 seg0[3] *481:A1 8.07879e-05
42 seg0[5] *148:49 1.48591e-05
43 seg0[5] *148:62 3.61629e-06
44 *477:A2 *477:A1 0.000392026
45 *477:A2 *479:A1 6.58033e-05
46 *479:B1 *477:A1 9.60939e-05
47 *479:B1 *479:A1 0.000114645
48 *481:A2 *481:A1 3.70968e-05
49 *481:A3 *481:A1 0.000170693
50 *483:B1 *148:33 0
51 *483:B1 *148:49 0.000188586
52 *484:A1 *148:75 0.000104258
53 *487:A2 *148:62 0.00012458
54 *487:A2 *148:75 1.52978e-05
55 *487:B1 *148:62 3.69697e-05
56 *490:C *148:75 0
57 *492:A1 *491:A1 9.11365e-06
58 *493:A3 *493:A1 1.21258e-05
59 *497:B1 *497:A1 9.93955e-05
60 *501:A1 *148:136 8.83401e-05
61 *502:A1 *148:136 0.000100823
62 *504:C *148:136 0.000173083
63 *516:A2 *481:A1 2.34518e-05
64 *569:RESET_B *477:A1 0.000121573
65 *570:CLK *148:49 2.44318e-05
66 *573:CLK *148:49 2.14658e-05
67 *590:CLK *148:117 5.58941e-05
68 *593:D *148:136 0.000136565
69 *604:A *148:136 0
70 *604:A *148:140 0.000144641
71 *607:A *493:A1 0.000178847
72 *607:A *148:140 5.52238e-05
73 *72:34 *148:136 0.000101545
74 *73:14 *497:A1 2.06093e-05
75 *73:33 *479:A1 4.61329e-05
76 *73:33 *497:A1 0.000297986
77 *73:33 *148:75 0.000527956
78 *73:33 *148:117 0.00232815
79 *91:110 *491:A1 4.56011e-05
80 *91:110 *495:A1 3.22167e-05
81 *94:37 *497:A1 5.7661e-06
82 *94:117 *148:75 0.000104175
83 *94:117 *148:117 0.000112411
84 *95:94 *485:A1 6.09963e-05
85 *95:105 *485:A1 4.43256e-05
86 *96:54 *479:A1 9.8045e-05
87 *96:87 *148:136 7.3364e-05
88 *96:119 *148:33 0.000219711
89 *96:119 *148:62 0.000266092
90 *104:12 *477:A1 5.52238e-05
91 *111:12 *495:A1 0.000125717
92 *127:12 *477:A1 0.000178847
93 *127:12 *148:79 0.000181803
94 *132:26 *148:140 0.000354311
95 *147:109 *148:33 0.000148189
96 *147:125 *481:A1 5.09225e-05
97 *147:125 *148:33 1.02504e-05
98 *147:125 *148:49 0
99 *147:182 *148:75 1.94879e-05
*RES
1 *613:X *148:4 9.3 
2 *148:4 *481:A1 27.6036 
3 *148:4 *148:33 13.125 
4 *148:33 *148:49 15.9821 
5 *148:49 *487:A1 10.0321 
6 *148:49 *148:62 11.2321 
7 *148:62 *485:A1 15.5857 
8 *148:62 *148:75 14.3929 
9 *148:75 *148:79 6.26786 
10 *148:79 *479:A1 21.1437 
11 *148:79 *477:A1 25.5321 
12 *148:75 *148:117 29.6429 
13 *148:117 *497:A1 15.4964 
14 *148:117 *148:136 21.3214 
15 *148:136 *148:140 13.6607 
16 *148:140 *495:A1 16.6571 
17 *148:140 *491:A1 16.05 
18 *148:136 *493:A1 11.0679 
19 *148:33 *483:A1 9.3 
*END

*D_NET *149 0.00123277
*CONN
*I *677:A I *D sky130_fd_sc_hd__buf_2
*I *477:X O *D sky130_fd_sc_hd__a31o_1
*CAP
1 *677:A 0.000322826
2 *477:X 0.000322826
3 *677:A *478:B1 0.00015234
4 *677:A *156:28 4.46186e-06
5 seg0[0] *677:A 7.0557e-05
6 *478:A1 *677:A 0.000346639
7 *568:RESET_B *677:A 1.31235e-05
8 *621:A *677:A 0
*RES
1 *477:X *677:A 35.2964 
*END

*D_NET *150 0.0134628
*CONN
*I *474:A I *D sky130_fd_sc_hd__nor4b_1
*I *473:D I *D sky130_fd_sc_hd__and4b_1
*I *508:A1 I *D sky130_fd_sc_hd__a31o_1
*I *505:A1 I *D sky130_fd_sc_hd__a31o_1
*I *510:A1 I *D sky130_fd_sc_hd__a31o_1
*I *512:A1 I *D sky130_fd_sc_hd__a31o_1
*I *468:A I *D sky130_fd_sc_hd__inv_2
*I *514:A1 I *D sky130_fd_sc_hd__a31o_1
*I *516:A1 I *D sky130_fd_sc_hd__a31o_1
*I *506:D I *D sky130_fd_sc_hd__and4bb_2
*I *614:X O *D sky130_fd_sc_hd__buf_2
*CAP
1 *474:A 0
2 *473:D 2.23854e-05
3 *508:A1 0
4 *505:A1 0.000339382
5 *510:A1 5.73996e-05
6 *512:A1 0
7 *468:A 7.55536e-05
8 *514:A1 0
9 *516:A1 0.000583665
10 *506:D 0.000249399
11 *614:X 0
12 *150:97 0.000633403
13 *150:57 0.000678119
14 *150:53 0.000546615
15 *150:47 0.000446061
16 *150:43 0.000588011
17 *150:35 0.00168861
18 *150:21 0.00187559
19 *150:15 0.000519447
20 *150:4 0.000322321
21 *505:A1 *209:10 0
22 *506:D *474:B 0.000313235
23 *516:A1 *548:A 0.000100684
24 *150:15 *474:B 0.000137939
25 *150:15 *156:52 0
26 *150:21 *474:B 1.02504e-05
27 *150:21 *156:52 0
28 *150:35 *154:29 0
29 *150:53 *518:C 0
30 *150:53 *546:A 1.28585e-05
31 *150:53 *583:D 5.01213e-05
32 *150:53 *154:53 6.04396e-05
33 *150:53 *154:78 0
34 seg0[6] *516:A1 4.51399e-05
35 seg2[4] *516:A1 0.000142157
36 seg2[5] *516:A1 5.52302e-05
37 *473:A_N *150:35 9.90367e-05
38 *473:C *150:35 3.48705e-05
39 *475:A2 *150:21 0
40 *475:B1 *150:21 4.88637e-05
41 *476:B1 *150:21 9.90431e-05
42 *505:A2 *505:A1 0.000170685
43 *505:A3 *505:A1 5.71472e-05
44 *505:B1 *505:A1 0.000125731
45 *507:A1 *505:A1 0.00037539
46 *508:B1 *150:35 2.06112e-05
47 *510:A2 *510:A1 3.99614e-06
48 *510:B1 *510:A1 9.90367e-05
49 *510:B1 *150:97 0.000228558
50 *511:A1 *505:A1 0
51 *511:A2 *505:A1 5.54856e-05
52 *512:A3 *150:47 1.01075e-05
53 *512:B1 *150:47 2.24646e-05
54 *512:B1 *150:53 0.000191403
55 *514:A2 *516:A1 1.19402e-05
56 *514:A2 *150:53 0
57 *514:A2 *150:57 7.39637e-05
58 *514:A3 *516:A1 5.80706e-06
59 *514:A3 *150:57 8.06427e-05
60 *516:B1 *516:A1 1.60759e-05
61 *584:RESET_B *516:A1 0.000122405
62 *584:RESET_B *150:53 0.0001315
63 *584:RESET_B *150:57 1.50087e-05
64 *594:D *150:35 0.000294426
65 *603:RESET_B *150:15 3.34672e-05
66 *605:A *150:43 2.42516e-05
67 *605:A *150:97 3.1367e-05
68 *629:A *150:97 4.08637e-05
69 *666:A *505:A1 4.87854e-05
70 *668:A *510:A1 9.90367e-05
71 *669:A *516:A1 0
72 *670:A *516:A1 0
73 *72:10 *468:A 4.87854e-05
74 *73:33 *506:D 8.25843e-06
75 *85:14 *150:43 0
76 *91:6 *150:35 2.89114e-05
77 *91:149 *150:35 6.42095e-05
78 *92:82 *150:35 0.000108118
79 *92:126 *150:21 0.000144384
80 *92:126 *150:35 0.000114369
81 *93:41 *505:A1 7.59227e-05
82 *93:41 *510:A1 2.44318e-05
83 *94:37 *150:47 3.52194e-05
84 *96:87 *150:35 0
85 *147:14 *150:35 6.37883e-06
86 *147:14 *150:43 4.32309e-05
87 *147:29 *150:43 0.000113119
88 *147:37 *150:43 0.000128875
89 *147:37 *150:47 0.00012026
90 *147:37 *150:53 3.34366e-05
91 *147:69 *150:97 3.98662e-05
92 *147:182 *150:21 9.90431e-05
*RES
1 *614:X *150:4 9.3 
2 *150:4 *506:D 12.7107 
3 *150:4 *150:15 6.44643 
4 *150:15 *150:21 12.6205 
5 *150:21 *150:35 23.1534 
6 *150:35 *150:43 9.44643 
7 *150:43 *150:47 6.14286 
8 *150:47 *150:53 8.78571 
9 *150:53 *150:57 3.08929 
10 *150:57 *516:A1 25.0143 
11 *150:57 *514:A1 13.8 
12 *150:53 *468:A 15.1571 
13 *150:47 *512:A1 13.8 
14 *150:43 *150:97 4.66071 
15 *150:97 *510:A1 11.0857 
16 *150:97 *505:A1 27.2643 
17 *150:35 *508:A1 13.8 
18 *150:21 *473:D 9.72857 
19 *150:15 *474:A 13.8 
*END

*D_NET *151 0.0111456
*CONN
*I *527:A1 I *D sky130_fd_sc_hd__a31o_1
*I *525:A1 I *D sky130_fd_sc_hd__a31o_1
*I *523:A1 I *D sky130_fd_sc_hd__a31o_1
*I *520:A1 I *D sky130_fd_sc_hd__a31o_1
*I *521:C I *D sky130_fd_sc_hd__and4b_2
*I *531:A1 I *D sky130_fd_sc_hd__a31o_1
*I *529:A1 I *D sky130_fd_sc_hd__a31o_1
*I *471:A_N I *D sky130_fd_sc_hd__and4bb_2
*I *472:B1 I *D sky130_fd_sc_hd__a21o_1
*I *615:X O *D sky130_fd_sc_hd__clkbuf_2
*CAP
1 *527:A1 0
2 *525:A1 0.000310891
3 *523:A1 0.000482477
4 *520:A1 0
5 *521:C 0
6 *531:A1 0.00010563
7 *529:A1 0
8 *471:A_N 0.000228091
9 *472:B1 6.03101e-05
10 *615:X 0.000218128
11 *151:79 0.00073076
12 *151:73 0.000728479
13 *151:69 0.000328939
14 *151:44 0.000373063
15 *151:31 0.000591386
16 *151:27 0.000283974
17 *151:23 0.000438021
18 *151:12 0.000368713
19 *471:A_N *152:6 5.52302e-05
20 *471:A_N *152:14 6.89249e-05
21 *472:B1 *472:A1 1.97695e-05
22 *472:B1 *157:47 0.00014285
23 *523:A1 *523:A2 0.000136697
24 *525:A1 *522:B1 5.71472e-05
25 *525:A1 *586:D 1.15281e-05
26 *151:12 *472:A1 0
27 *151:12 *526:B1 5.52238e-05
28 *151:23 *157:45 4.08637e-05
29 *151:23 *157:47 0.000181796
30 *151:27 *565:A 0.000412326
31 *151:44 *521:D 0.00018649
32 *151:69 *528:B1 5.71472e-05
33 *151:69 *157:43 0.000101679
34 *151:69 *157:45 0.000356028
35 *151:73 *153:34 4.99508e-05
36 *151:73 *153:36 9.25014e-06
37 *151:73 *153:84 0.000150608
38 *151:79 *520:A2 0.000153054
39 *151:79 *552:A 0
40 *151:79 *587:D 0.000322446
41 *151:79 *153:84 0.000452081
42 *471:C *471:A_N 0.000176328
43 *520:A3 *151:79 3.98524e-05
44 *520:B1 *523:A1 0.000422164
45 *520:B1 *151:79 0
46 *521:B *471:A_N 0.000212153
47 *522:A1 *525:A1 0.000137983
48 *522:A2 *525:A1 5.52238e-05
49 *524:A1 *523:A1 1.32552e-05
50 *527:B1 *151:69 5.52238e-05
51 *529:A3 *531:A1 9.71197e-05
52 *529:B1 *531:A1 0.000114467
53 *529:B1 *151:44 3.18676e-05
54 *602:D *472:B1 1.92905e-05
55 *608:A *151:12 8.71761e-05
56 *616:A *151:27 5.8183e-05
57 *616:A *151:31 3.17163e-05
58 *617:A *151:23 2.89016e-05
59 *672:A *523:A1 6.8646e-06
60 *672:A *151:79 0
61 *675:A *531:A1 0.000139913
62 *82:8 *151:27 0
63 *82:8 *151:31 0
64 *83:49 *151:31 1.37292e-05
65 *88:14 *151:69 0.000269422
66 *88:14 *151:73 9.42111e-05
67 *88:22 *151:27 6.8646e-06
68 *88:78 *151:73 3.75621e-05
69 *88:78 *151:79 0
70 *88:80 *525:A1 0.000194279
71 *91:32 *151:27 0.000365682
72 *93:87 *525:A1 1.97695e-05
73 *93:93 *151:12 0.000146474
*RES
1 *615:X *151:12 22.8357 
2 *151:12 *472:B1 11.0857 
3 *151:12 *151:23 2.17857 
4 *151:23 *151:27 11.3036 
5 *151:27 *151:31 5.83929 
6 *151:31 *471:A_N 14.3714 
7 *151:31 *151:44 5.89286 
8 *151:44 *529:A1 9.3 
9 *151:44 *531:A1 12.3 
10 *151:27 *521:C 13.8 
11 *151:23 *151:69 5.60714 
12 *151:69 *151:73 9.33036 
13 *151:73 *151:79 12.9018 
14 *151:79 *520:A1 9.3 
15 *151:79 *523:A1 27.6393 
16 *151:73 *525:A1 20.1036 
17 *151:69 *527:A1 9.3 
*END

*D_NET *152 0.0119962
*CONN
*I *474:B I *D sky130_fd_sc_hd__nor4b_1
*I *506:A_N I *D sky130_fd_sc_hd__and4bb_2
*I *471:D I *D sky130_fd_sc_hd__and4bb_2
*I *493:A2 I *D sky130_fd_sc_hd__a31o_1
*I *501:A2 I *D sky130_fd_sc_hd__a31o_1
*I *499:A2 I *D sky130_fd_sc_hd__a31o_1
*I *497:A2 I *D sky130_fd_sc_hd__a31o_1
*I *469:A I *D sky130_fd_sc_hd__inv_2
*I *491:A2 I *D sky130_fd_sc_hd__a31o_1
*I *495:A2 I *D sky130_fd_sc_hd__a31o_1
*I *616:X O *D sky130_fd_sc_hd__buf_2
*CAP
1 *474:B 0.000299614
2 *506:A_N 8.95943e-06
3 *471:D 0
4 *493:A2 0.000232568
5 *501:A2 2.22847e-05
6 *499:A2 0
7 *497:A2 0
8 *469:A 0.000422061
9 *491:A2 0.000254858
10 *495:A2 0
11 *616:X 3.10251e-05
12 *152:118 0.000415972
13 *152:54 0.000538473
14 *152:52 0.000215008
15 *152:32 0.000629719
16 *152:26 0.000690646
17 *152:24 0.00045605
18 *152:22 0.000781622
19 *152:14 0.00060309
20 *152:6 0.000409035
21 *152:22 *155:46 0.000218012
22 *152:24 *504:B 5.52302e-05
23 *471:A_N *152:6 5.52302e-05
24 *471:A_N *152:14 6.89249e-05
25 *471:B_N *152:14 1.98839e-05
26 *471:C *152:14 0.000181608
27 *474:C *474:B 0
28 *476:B1 *152:118 7.17836e-05
29 *491:A1 *491:A2 0.000162345
30 *493:A1 *493:A2 5.33005e-05
31 *493:A3 *493:A2 2.59355e-05
32 *493:B1 *493:A2 5.52302e-05
33 *495:A1 *491:A2 0.00021853
34 *495:A1 *152:32 1.02504e-05
35 *498:A1 *469:A 1.02504e-05
36 *498:A1 *152:52 0.000207054
37 *498:A1 *152:54 0.000186749
38 *499:B1 *152:26 8.42609e-05
39 *499:B1 *152:32 5.33005e-05
40 *499:B1 *152:52 9.241e-05
41 *499:B1 *152:54 5.37741e-06
42 *500:A1 *152:54 0
43 *501:A1 *152:24 2.36643e-05
44 *501:A3 *152:24 1.10868e-05
45 *501:A3 *152:26 2.07878e-05
46 *501:B1 *152:24 0.000308562
47 *505:A3 *469:A 0
48 *506:C *474:B 5.52302e-05
49 *506:D *474:B 0.000313235
50 *578:RESET_B *152:26 9.08883e-05
51 *578:RESET_B *152:32 7.32955e-05
52 *593:D *152:24 5.68722e-05
53 *602:RESET_B *152:22 5.33005e-05
54 *604:A *493:A2 0.000502184
55 *607:A *493:A2 1.38323e-05
56 *614:A *474:B 0.000329737
57 *614:A *506:A_N 5.52238e-05
58 *625:A *152:22 0.000169359
59 *625:A *152:24 9.60939e-05
60 *666:A *469:A 3.14163e-05
61 *73:33 *474:B 1.39726e-05
62 *74:12 *152:14 5.7661e-06
63 *74:67 *491:A2 0
64 *80:12 *474:B 4.38128e-05
65 *80:12 *506:A_N 5.71472e-05
66 *84:36 *152:22 0.000220441
67 *90:8 *152:22 4.62861e-05
68 *91:32 *152:22 0.000135028
69 *91:84 *152:32 0
70 *91:110 *152:32 0
71 *92:82 *493:A2 0.000526253
72 *93:12 *493:A2 1.31516e-05
73 *93:41 *469:A 0
74 *93:41 *491:A2 2.31791e-05
75 *93:41 *152:32 0.000336922
76 *94:37 *469:A 0
77 *113:6 *152:32 0.00018077
78 *132:26 *152:26 9.77414e-05
79 *147:14 *469:A 9.61162e-05
80 *150:15 *474:B 0.000137939
81 *150:21 *474:B 1.02504e-05
*RES
1 *616:X *152:6 9.83571 
2 *152:6 *152:14 4.69643 
3 *152:14 *152:22 16.9107 
4 *152:22 *152:24 4.64286 
5 *152:24 *152:26 4.23214 
6 *152:26 *152:32 12.2857 
7 *152:32 *495:A2 13.8 
8 *152:32 *491:A2 18.7821 
9 *152:26 *152:52 7.35714 
10 *152:52 *152:54 2.55357 
11 *152:54 *469:A 20.55 
12 *152:54 *497:A2 13.8 
13 *152:52 *499:A2 13.8 
14 *152:24 *501:A2 9.72857 
15 *152:22 *493:A2 26.5857 
16 *152:14 *471:D 9.3 
17 *152:6 *152:118 10.9464 
18 *152:118 *506:A_N 9.83571 
19 *152:118 *474:B 26.5679 
*END

*D_NET *153 0.0101998
*CONN
*I *523:A2 I *D sky130_fd_sc_hd__a31o_1
*I *520:A2 I *D sky130_fd_sc_hd__a31o_1
*I *527:A2 I *D sky130_fd_sc_hd__a31o_1
*I *531:A2 I *D sky130_fd_sc_hd__a31o_1
*I *521:D I *D sky130_fd_sc_hd__and4b_2
*I *529:A2 I *D sky130_fd_sc_hd__a31o_1
*I *525:A2 I *D sky130_fd_sc_hd__a31o_1
*I *476:B2 I *D sky130_fd_sc_hd__o2bb2a_1
*I *617:X O *D sky130_fd_sc_hd__clkbuf_2
*CAP
1 *523:A2 0.000201
2 *520:A2 9.41229e-05
3 *527:A2 0
4 *531:A2 0.000274036
5 *521:D 0.000387361
6 *529:A2 6.39737e-05
7 *525:A2 0.000171129
8 *476:B2 0.000259793
9 *617:X 0
10 *153:84 0.000651899
11 *153:51 0.000661398
12 *153:36 0.000254105
13 *153:34 0.000275807
14 *153:28 0.000955923
15 *153:13 0.000723552
16 *153:4 0.000298745
17 *476:B2 *157:47 0.000402777
18 *153:13 *157:47 4.27935e-05
19 *153:28 *157:43 0.000263524
20 *153:28 *157:45 0.000397924
21 *153:28 *157:47 8.57023e-05
22 *153:36 *528:B1 0.000186941
23 *520:A3 *520:A2 0.000154762
24 *520:A3 *525:A2 0
25 *520:B1 *153:84 0
26 *523:A1 *523:A2 0.000136697
27 *524:A1 *523:A2 5.31719e-05
28 *525:B1 *525:A2 5.80706e-06
29 *527:A3 *153:34 1.02504e-05
30 *527:A3 *153:36 0.000439656
31 *529:B1 *521:D 5.52238e-05
32 *529:B1 *531:A2 0.000338719
33 *531:B1 *531:A2 2.84398e-05
34 *532:A1 *531:A2 1.87955e-05
35 *590:CLK *529:A2 3.84511e-05
36 *590:CLK *153:36 3.25078e-05
37 *672:A *523:A2 0.00014183
38 *674:A *153:34 4.46186e-06
39 *674:A *153:84 8.15939e-05
40 *82:8 *153:36 0
41 *82:66 *153:36 0
42 *91:32 *525:A2 0
43 *92:20 *520:A2 9.60875e-05
44 *92:20 *523:A2 0.000521792
45 *93:91 *525:A2 0.000174812
46 *93:93 *525:A2 0.000150625
47 *94:117 *529:A2 2.96741e-05
48 *94:117 *153:36 3.25078e-05
49 *121:16 *153:84 0
50 *124:10 *153:34 0
51 *151:44 *521:D 0.00018649
52 *151:73 *153:34 4.99508e-05
53 *151:73 *153:36 9.25014e-06
54 *151:73 *153:84 0.000150608
55 *151:79 *520:A2 0.000153054
56 *151:79 *153:84 0.000452081
*RES
1 *617:X *153:4 9.3 
2 *153:4 *476:B2 13.1214 
3 *153:4 *153:13 0.535714 
4 *153:13 *525:A2 22.3714 
5 *153:13 *153:28 11.6071 
6 *153:28 *153:34 1.69643 
7 *153:34 *153:36 6.5 
8 *153:36 *529:A2 15.1929 
9 *153:36 *153:51 4.5 
10 *153:51 *521:D 14.7821 
11 *153:51 *531:A2 22.4429 
12 *153:34 *527:A2 13.8 
13 *153:28 *153:84 14.0357 
14 *153:84 *520:A2 21.1929 
15 *153:84 *523:A2 15.4964 
*END

*D_NET *154 0.0127523
*CONN
*I *562:A I *D sky130_fd_sc_hd__inv_2
*I *558:A I *D sky130_fd_sc_hd__inv_2
*I *559:A I *D sky130_fd_sc_hd__inv_2
*I *545:A I *D sky130_fd_sc_hd__inv_2
*I *544:A I *D sky130_fd_sc_hd__inv_2
*I *546:A I *D sky130_fd_sc_hd__inv_2
*I *549:A I *D sky130_fd_sc_hd__inv_2
*I *548:A I *D sky130_fd_sc_hd__inv_2
*I *547:A I *D sky130_fd_sc_hd__inv_2
*I *563:A I *D sky130_fd_sc_hd__inv_2
*I *618:X O *D sky130_fd_sc_hd__buf_4
*CAP
1 *562:A 2.12584e-05
2 *558:A 0
3 *559:A 0
4 *545:A 0.000270911
5 *544:A 0
6 *546:A 0.000314992
7 *549:A 0
8 *548:A 0.000313954
9 *547:A 0.000267548
10 *563:A 0.000434377
11 *618:X 0
12 *154:78 0.000569975
13 *154:66 0.000774216
14 *154:53 0.000918506
15 *154:47 0.00105961
16 *154:35 0.00114303
17 *154:29 0.000631978
18 *154:21 0.000670567
19 *154:6 0.000733226
20 *154:4 2.12584e-05
21 *547:A *584:D 5.23142e-05
22 *548:A *585:D 4.21994e-05
23 *563:A *482:B1 0
24 *563:A *155:21 0
25 *154:29 *598:D 0.000388146
26 *154:35 *509:B1 7.8195e-05
27 *154:47 *509:B1 0.00017309
28 *154:47 *519:B 5.33005e-05
29 *154:47 *208:16 0.00017754
30 *154:53 *519:B 5.59013e-05
31 *154:66 *584:D 8.90583e-05
32 *154:78 *515:B1 0.000141729
33 *154:78 *585:D 0
34 seg0[6] *548:A 0.000131513
35 *473:C *154:21 0.000114577
36 *508:A3 *154:47 0.000114461
37 *508:B1 *154:47 2.16394e-05
38 *512:A3 *154:53 4.08629e-05
39 *512:B1 *154:53 5.2177e-05
40 *514:A2 *154:53 0.000133253
41 *514:B1 *548:A 0
42 *514:B1 *154:78 0.000137771
43 *515:A2 *154:78 0.000141729
44 *516:A1 *548:A 0.000100684
45 *516:A3 *548:A 0
46 *581:RESET_B *154:35 0.000186765
47 *582:RESET_B *546:A 0.000205429
48 *584:CLK *547:A 4.79137e-05
49 *584:RESET_B *548:A 0
50 *584:RESET_B *154:78 5.31541e-05
51 *585:RESET_B *548:A 0.000100639
52 *595:SET_B *154:29 1.21258e-05
53 *595:SET_B *154:35 3.69047e-06
54 *598:RESET_B *563:A 0
55 *606:A *562:A 0.000142856
56 *624:A *154:35 8.66906e-05
57 *626:A *154:47 2.36643e-05
58 *632:A *546:A 5.49544e-05
59 *666:A *154:53 0.000123295
60 *669:A *548:A 0
61 *73:33 *545:A 0.00015362
62 *80:12 *545:A 1.33343e-05
63 *84:10 *154:21 0.000104236
64 *85:33 *154:47 1.15916e-05
65 *85:35 *154:47 0.000115838
66 *92:82 *154:29 0
67 *93:41 *154:53 7.59321e-05
68 *94:37 *154:53 0.000212655
69 *95:10 *563:A 4.71964e-05
70 *95:62 *548:A 0
71 *96:54 *562:A 0.000142856
72 *117:10 *154:53 0.000237449
73 *147:14 *154:47 0
74 *147:107 *154:21 0.000137558
75 *150:35 *154:29 0
76 *150:53 *546:A 1.28585e-05
77 *150:53 *154:53 6.04396e-05
78 *150:53 *154:78 0
*RES
1 *618:X *154:4 9.3 
2 *154:4 *154:6 4.5 
3 *154:6 *563:A 20.9071 
4 *154:6 *154:21 11.1786 
5 *154:21 *154:29 16.5714 
6 *154:29 *154:35 10.0893 
7 *154:35 *154:47 14.8214 
8 *154:47 *154:53 20.3571 
9 *154:53 *547:A 13.0321 
10 *154:53 *154:66 7.08929 
11 *154:66 *154:78 10.5179 
12 *154:78 *548:A 24.8893 
13 *154:78 *549:A 9.3 
14 *154:66 *546:A 20.0857 
15 *154:47 *544:A 9.3 
16 *154:35 *545:A 18.6393 
17 *154:29 *559:A 9.3 
18 *154:21 *558:A 9.3 
19 *154:4 *562:A 10.6571 
*END

*D_NET *155 0.0151556
*CONN
*I *539:A I *D sky130_fd_sc_hd__inv_2
*I *538:A I *D sky130_fd_sc_hd__inv_2
*I *557:A I *D sky130_fd_sc_hd__inv_2
*I *542:A I *D sky130_fd_sc_hd__inv_2
*I *540:A I *D sky130_fd_sc_hd__inv_2
*I *541:A I *D sky130_fd_sc_hd__inv_2
*I *543:A I *D sky130_fd_sc_hd__inv_2
*I *618:A I *D sky130_fd_sc_hd__buf_4
*I *564:A I *D sky130_fd_sc_hd__inv_2
*I *619:X O *D sky130_fd_sc_hd__clkbuf_4
*CAP
1 *539:A 0
2 *538:A 0.000437645
3 *557:A 0
4 *542:A 1.91209e-05
5 *540:A 2.23854e-05
6 *541:A 0.000176558
7 *543:A 8.98983e-05
8 *618:A 1.16062e-05
9 *564:A 0.000437984
10 *619:X 0.000156732
11 *155:113 0.000888152
12 *155:100 0.000585932
13 *155:71 0.00102032
14 *155:63 0.00162109
15 *155:57 0.000998754
16 *155:46 0.000807317
17 *155:21 0.000857259
18 *155:8 0.00080569
19 *538:A *504:A 0.000575223
20 *540:A *496:B1 0
21 *541:A *503:A 0
22 *155:46 *596:D 6.20209e-05
23 *155:71 *496:B1 0.000527311
24 *155:100 *561:A 0
25 *155:100 *596:D 0
26 *155:113 *504:A 0
27 *155:113 *561:A 0
28 *155:113 *588:D 0
29 seg1[5] *541:A 0.000115369
30 *473:C *155:46 9.91086e-05
31 *493:B1 *155:113 0
32 *516:B1 *564:A 0
33 *563:A *155:21 0
34 *570:RESET_B *564:A 0
35 *588:CLK *538:A 0
36 *593:CLK *155:63 2.78521e-05
37 *593:CLK *155:71 8.28247e-05
38 *593:D *155:63 5.48009e-05
39 *593:RESET_B *155:63 9.42929e-05
40 *593:RESET_B *155:100 0.000177948
41 *599:RESET_B *564:A 1.18064e-05
42 *600:RESET_B *564:A 3.18676e-05
43 *601:D *155:46 1.33343e-05
44 *602:RESET_B *155:46 0.000173083
45 *602:RESET_B *155:57 4.35048e-05
46 *602:RESET_B *155:100 2.8266e-06
47 *603:CLK *155:21 0.000146474
48 *603:CLK *155:46 0.00025718
49 *605:A *618:A 5.52302e-05
50 *628:A *155:71 0.00013925
51 *637:A *564:A 0
52 *640:A *564:A 0
53 *646:A *155:57 0
54 *646:A *155:100 0
55 *648:A *155:100 0.000128154
56 *661:A *540:A 0
57 *661:A *541:A 8.90314e-05
58 *661:A *155:71 5.7256e-05
59 *84:10 *155:46 0.00060101
60 *84:36 *155:46 0.000278089
61 *86:65 *564:A 0.000103267
62 *86:65 *155:21 0.00029216
63 *87:49 *541:A 5.26442e-05
64 *91:20 *155:46 0.000737521
65 *91:64 *543:A 0.00010096
66 *91:64 *155:46 8.57023e-05
67 *91:72 *543:A 0.000142856
68 *92:61 *155:113 0
69 *93:12 *155:100 0
70 *93:12 *155:113 0
71 *93:33 *155:63 4.73308e-05
72 *95:10 *564:A 0.000137224
73 *95:10 *155:8 5.52302e-05
74 *95:10 *155:21 3.34366e-05
75 *95:12 *564:A 4.80729e-05
76 *95:18 *564:A 0.000162735
77 *96:54 *618:A 5.52302e-05
78 *101:6 *155:63 9.33978e-07
79 *105:8 *564:A 0.00010096
80 *110:12 *155:113 0
81 *152:22 *155:46 0.000218012
*RES
1 *619:X *155:8 15.5679 
2 *155:8 *564:A 23.3 
3 *155:8 *155:21 5.58929 
4 *155:21 *618:A 14.3357 
5 *155:21 *155:46 25.1429 
6 *155:46 *543:A 11.4786 
7 *155:46 *155:57 6.14286 
8 *155:57 *155:63 13.6786 
9 *155:63 *155:71 12.1964 
10 *155:71 *541:A 22.425 
11 *155:71 *540:A 9.72857 
12 *155:63 *542:A 9.72857 
13 *155:57 *155:100 3.46429 
14 *155:100 *557:A 13.8 
15 *155:100 *155:113 12.0714 
16 *155:113 *538:A 27.6571 
17 *155:113 *539:A 9.3 
*END

*D_NET *156 0.0142496
*CONN
*I *470:A I *D sky130_fd_sc_hd__inv_2
*I *551:A I *D sky130_fd_sc_hd__inv_2
*I *550:A I *D sky130_fd_sc_hd__inv_2
*I *533:A I *D sky130_fd_sc_hd__inv_2
*I *567:A I *D sky130_fd_sc_hd__inv_2
*I *556:A I *D sky130_fd_sc_hd__inv_2
*I *535:A I *D sky130_fd_sc_hd__inv_2
*I *534:A I *D sky130_fd_sc_hd__inv_2
*I *536:A I *D sky130_fd_sc_hd__inv_2
*I *537:A I *D sky130_fd_sc_hd__inv_2
*I *620:X O *D sky130_fd_sc_hd__buf_4
*CAP
1 *470:A 3.00995e-05
2 *551:A 6.41707e-05
3 *550:A 0
4 *533:A 0
5 *567:A 0.000108541
6 *556:A 0
7 *535:A 0
8 *534:A 0.00094864
9 *536:A 4.80972e-05
10 *537:A 8.72086e-05
11 *620:X 0
12 *156:115 0.000941489
13 *156:58 0.00118843
14 *156:52 0.00065399
15 *156:44 0.000750172
16 *156:40 0.000344457
17 *156:34 0.00158894
18 *156:28 0.000826348
19 *156:10 0.000265966
20 *156:6 0.000332314
21 *534:A *680:A 1.91418e-05
22 *156:44 *678:A 0.000186669
23 *156:52 *490:B 6.05161e-06
24 *156:115 *157:10 0
25 seg0[1] *156:34 0.000114499
26 seg0[2] *534:A 7.83659e-05
27 seg0[3] *534:A 5.51502e-05
28 seg0[4] *534:A 0
29 *478:A2 *156:34 4.57352e-05
30 *479:B1 *156:34 7.55804e-05
31 *481:A1 *534:A 0.00033763
32 *481:A3 *534:A 0.000143983
33 *483:A3 *534:A 0.000276857
34 *483:A3 *156:58 0.000272658
35 *524:A2 *156:115 0
36 *529:A3 *156:44 0.000315158
37 *530:A2 *156:115 0.000313651
38 *532:A1 *156:115 0.000152147
39 *568:CLK *156:52 9.90431e-05
40 *568:RESET_B *470:A 6.05161e-06
41 *568:RESET_B *156:34 5.33334e-05
42 *569:RESET_B *156:34 7.26449e-05
43 *571:RESET_B *534:A 0.000100823
44 *572:RESET_B *536:A 0.000131439
45 *572:RESET_B *537:A 0.000273269
46 *587:RESET_B *551:A 8.57023e-05
47 *587:RESET_B *156:115 0.000230482
48 *589:RESET_B *156:115 0.000100831
49 *590:RESET_B *156:115 0.000200413
50 *592:D *156:52 7.77652e-05
51 *592:RESET_B *156:52 0
52 *603:RESET_B *567:A 5.33978e-05
53 *606:A *156:58 0.000149911
54 *621:A *156:28 5.35423e-05
55 *621:A *156:34 0
56 *621:A *156:115 0
57 *638:A *537:A 5.71472e-05
58 *677:A *156:28 4.46186e-06
59 *73:33 *567:A 2.89016e-05
60 *82:42 *156:115 7.4826e-05
61 *86:116 *156:52 9.01334e-05
62 *93:93 *534:A 0
63 *93:93 *156:58 0
64 *94:117 *567:A 9.34004e-05
65 *94:117 *156:52 1.17968e-05
66 *95:118 *156:34 0.000180919
67 *96:54 *156:34 0
68 *96:54 *156:52 6.42778e-05
69 *96:54 *156:58 0.000183726
70 *96:54 *156:115 0
71 *104:12 *156:34 6.28435e-05
72 *122:10 *156:115 4.01768e-05
73 *124:10 *156:115 0
74 *127:12 *156:44 0.000241492
75 *138:14 *156:10 8.59039e-05
76 *138:23 *156:10 1.41706e-05
77 *138:23 *156:28 8.17615e-05
78 *146:8 *156:52 0.000188304
79 *146:12 *156:52 0.000358225
80 *147:109 *156:58 5.74562e-05
81 *147:125 *534:A 6.88943e-05
82 *147:182 *156:52 0
83 *150:15 *156:52 0
84 *150:21 *156:52 0
*RES
1 *620:X *156:6 13.8 
2 *156:6 *156:10 7.66071 
3 *156:10 *537:A 11.8893 
4 *156:10 *536:A 10.6571 
5 *156:6 *156:28 9.17857 
6 *156:28 *156:34 17.4911 
7 *156:34 *156:40 5.72321 
8 *156:40 *156:44 10.7857 
9 *156:44 *156:52 14.5179 
10 *156:52 *156:58 11.25 
11 *156:58 *534:A 41.1036 
12 *156:58 *535:A 13.8 
13 *156:52 *556:A 9.3 
14 *156:44 *567:A 16.5857 
15 *156:40 *533:A 9.3 
16 *156:34 *156:115 23.8839 
17 *156:115 *550:A 9.3 
18 *156:115 *551:A 10.6571 
19 *156:28 *470:A 9.83571 
*END

*D_NET *157 0.0130925
*CONN
*I *560:A I *D sky130_fd_sc_hd__inv_2
*I *552:A I *D sky130_fd_sc_hd__inv_2
*I *565:A I *D sky130_fd_sc_hd__inv_2
*I *566:A I *D sky130_fd_sc_hd__inv_2
*I *561:A I *D sky130_fd_sc_hd__inv_2
*I *553:A I *D sky130_fd_sc_hd__inv_2
*I *555:A I *D sky130_fd_sc_hd__inv_2
*I *554:A I *D sky130_fd_sc_hd__inv_2
*I *621:X O *D sky130_fd_sc_hd__clkbuf_4
*CAP
1 *560:A 7.2836e-05
2 *552:A 0.000416893
3 *565:A 0.000141384
4 *566:A 0.000140095
5 *561:A 0.000403746
6 *553:A 0
7 *555:A 0.000331977
8 *554:A 8.88179e-05
9 *621:X 0
10 *157:90 0.000817636
11 *157:47 0.000709688
12 *157:45 0.000380512
13 *157:43 0.000782938
14 *157:34 0.000526397
15 *157:10 0.000633819
16 *157:4 0.000357669
17 *552:A *597:D 5.62995e-05
18 *554:A *530:B1 3.69047e-06
19 *555:A *530:B1 1.21258e-05
20 *560:A *522:B1 0.00014183
21 *561:A *588:D 1.00375e-05
22 *561:A *596:D 0.000304898
23 *566:A *472:A1 0
24 *157:47 *472:A1 0.000230482
25 *157:90 *522:B1 0.000360809
26 *157:90 *586:D 6.42242e-05
27 *157:90 *587:D 0
28 seg3[4] *555:A 6.76337e-05
29 *472:A2 *566:A 1.04232e-05
30 *472:B1 *157:47 0.00014285
31 *476:A1_N *561:A 4.19324e-05
32 *476:A1_N *566:A 0.000118438
33 *476:A2_N *566:A 5.33005e-05
34 *476:A2_N *157:47 5.74499e-06
35 *476:B2 *157:47 0.000402777
36 *520:A3 *552:A 6.76272e-05
37 *520:A3 *560:A 9.87983e-06
38 *520:A3 *157:90 5.91099e-05
39 *522:A2 *157:90 0
40 *527:B1 *157:43 0.00048746
41 *529:B1 *554:A 0.00022459
42 *529:B1 *555:A 0.000135028
43 *530:A2 *157:10 0.000125899
44 *588:CLK *561:A 0.00010096
45 *590:RESET_B *554:A 2.59355e-05
46 *591:RESET_B *555:A 6.85604e-05
47 *596:CLK *561:A 3.99614e-06
48 *597:RESET_B *561:A 0.000177227
49 *602:RESET_B *566:A 1.24368e-05
50 *616:A *565:A 0.000145753
51 *617:A *565:A 0.000223599
52 *621:A *157:10 0.000504613
53 *622:A *157:43 5.52302e-05
54 *642:A *552:A 5.57914e-05
55 *648:A *561:A 4.57445e-05
56 *650:A *555:A 8.46829e-05
57 *653:A *555:A 3.71247e-05
58 *82:42 *157:10 7.92879e-05
59 *82:66 *157:90 0
60 *88:14 *157:90 0.0002253
61 *88:78 *157:90 0.000140375
62 *91:32 *565:A 1.08359e-05
63 *92:12 *552:A 1.96812e-05
64 *92:12 *157:90 5.01876e-06
65 *92:20 *560:A 0.000139913
66 *93:93 *565:A 2.46999e-05
67 *125:10 *555:A 8.15939e-05
68 *151:23 *157:45 4.08637e-05
69 *151:23 *157:47 0.000181796
70 *151:27 *565:A 0.000412326
71 *151:69 *157:43 0.000101679
72 *151:69 *157:45 0.000356028
73 *151:79 *552:A 0
74 *153:13 *157:47 4.27935e-05
75 *153:28 *157:43 0.000263524
76 *153:28 *157:45 0.000397924
77 *153:28 *157:47 8.57023e-05
78 *155:100 *561:A 0
79 *155:113 *561:A 0
80 *156:115 *157:10 0
*RES
1 *621:X *157:4 9.3 
2 *157:4 *157:10 15.5 
3 *157:10 *554:A 11.4786 
4 *157:10 *555:A 25.4607 
5 *157:4 *157:34 2.5 
6 *157:34 *553:A 9.3 
7 *157:34 *157:43 8.66071 
8 *157:43 *157:45 3.82143 
9 *157:45 *157:47 6.28571 
10 *157:47 *561:A 27.8357 
11 *157:47 *566:A 12.5321 
12 *157:45 *565:A 23.8893 
13 *157:43 *157:90 13.5804 
14 *157:90 *552:A 21.8625 
15 *157:90 *560:A 15.9696 
*END

*D_NET *158 0.00097455
*CONN
*I *678:A I *D sky130_fd_sc_hd__buf_2
*I *479:X O *D sky130_fd_sc_hd__a31o_1
*CAP
1 *678:A 0.000134029
2 *479:X 0.000134029
3 *477:A1 *678:A 6.09476e-05
4 *529:A3 *678:A 6.01685e-05
5 *96:54 *678:A 0.000168224
6 *127:12 *678:A 0.000230482
7 *156:44 *678:A 0.000186669
*RES
1 *479:X *678:A 32.4571 
*END

*D_NET *159 0.0010645
*CONN
*I *528:B1 I *D sky130_fd_sc_hd__a21o_1
*I *622:X O *D sky130_fd_sc_hd__dlygate4sd3_1
*CAP
1 *528:B1 0.00035367
2 *622:X 0.00035367
3 *528:B1 *589:D 0
4 *527:B1 *528:B1 0.000113073
5 *82:8 *528:B1 0
6 *82:66 *528:B1 0
7 *151:69 *528:B1 5.71472e-05
8 *153:36 *528:B1 0.000186941
*RES
1 *622:X *528:B1 34.9929 
*END

*D_NET *160 0.000460162
*CONN
*I *532:B1 I *D sky130_fd_sc_hd__a21o_1
*I *633:X O *D sky130_fd_sc_hd__dlygate4sd3_1
*CAP
1 *532:B1 0.000132355
2 *633:X 0.000132355
3 *524:A2 *532:B1 5.52302e-05
4 *532:A1 *532:B1 2.78509e-05
5 *532:A2 *532:B1 5.52238e-05
6 *589:RESET_B *532:B1 5.71472e-05
*RES
1 *633:X *532:B1 21.3321 
*END

*D_NET *161 0.000602343
*CONN
*I *524:B1 I *D sky130_fd_sc_hd__a21o_1
*I *644:X O *D sky130_fd_sc_hd__dlygate4sd3_1
*CAP
1 *524:B1 0.000218611
2 *644:X 0.000218611
3 *523:B1 *524:B1 3.93893e-05
4 *524:A2 *524:B1 0.000125731
*RES
1 *644:X *524:B1 31.0107 
*END

*D_NET *162 0.00195774
*CONN
*I *522:B1 I *D sky130_fd_sc_hd__a21o_1
*I *647:X O *D sky130_fd_sc_hd__dlygate4sd3_1
*CAP
1 *522:B1 0.000278471
2 *647:X 0.000278471
3 *522:B1 *526:B1 0
4 *522:B1 *587:D 0.00018077
5 *522:A2 *522:B1 2.8266e-06
6 *525:A1 *522:B1 5.71472e-05
7 *560:A *522:B1 0.00014183
8 *596:RESET_B *522:B1 0.000280905
9 *649:A *522:B1 2.59355e-05
10 *88:80 *522:B1 5.52238e-05
11 *92:8 *522:B1 2.26973e-05
12 *92:12 *522:B1 3.55407e-05
13 *92:20 *522:B1 9.8935e-05
14 *92:61 *522:B1 0.000138178
15 *157:90 *522:B1 0.000360809
*RES
1 *647:X *522:B1 36.6357 
*END

*D_NET *163 0.000752157
*CONN
*I *472:A1 I *D sky130_fd_sc_hd__a21o_1
*I *648:X O *D sky130_fd_sc_hd__dlygate4sd3_1
*CAP
1 *472:A1 0.000131706
2 *648:X 0.000131706
3 *472:A2 *472:A1 0.000111048
4 *472:B1 *472:A1 1.97695e-05
5 *566:A *472:A1 0
6 *615:A *472:A1 0.000127446
7 *151:12 *472:A1 0
8 *157:47 *472:A1 0.000230482
*RES
1 *648:X *472:A1 31.85 
*END

*D_NET *164 0.0017607
*CONN
*I *526:B1 I *D sky130_fd_sc_hd__a21o_1
*I *649:X O *D sky130_fd_sc_hd__dlygate4sd3_1
*CAP
1 *526:B1 0.000421233
2 *649:X 0.000421233
3 *520:A3 *526:B1 0.00019384
4 *522:A2 *526:B1 8.47107e-05
5 *522:B1 *526:B1 0
6 *525:B1 *526:B1 7.07908e-05
7 *526:A2 *526:B1 0.000225609
8 *608:A *526:B1 6.71657e-05
9 *82:66 *526:B1 1.52978e-05
10 *91:32 *526:B1 0.000148903
11 *92:12 *526:B1 5.66946e-05
12 *92:61 *526:B1 0
13 *151:12 *526:B1 5.52238e-05
*RES
1 *649:X *526:B1 38.2429 
*END

*D_NET *165 0.000904529
*CONN
*I *530:B1 I *D sky130_fd_sc_hd__a21o_1
*I *650:X O *D sky130_fd_sc_hd__dlygate4sd3_1
*CAP
1 *530:B1 0.000150437
2 *650:X 0.000150437
3 *554:A *530:B1 3.69047e-06
4 *555:A *530:B1 1.21258e-05
5 *591:RESET_B *530:B1 0.000270236
6 *621:A *530:B1 0.000317602
*RES
1 *650:X *530:B1 32.2071 
*END

*D_NET *166 0.000879053
*CONN
*I *480:B1 I *D sky130_fd_sc_hd__a21o_1
*I *651:X O *D sky130_fd_sc_hd__dlygate4sd3_1
*CAP
1 *480:B1 0.000209641
2 *651:X 0.000209641
3 *480:B1 *196:10 5.52302e-05
4 *477:A2 *480:B1 8.48081e-05
5 *479:A1 *480:B1 2.24969e-05
6 *479:A3 *480:B1 0.00024443
7 *479:B1 *480:B1 4.06801e-05
8 *147:182 *480:B1 1.21258e-05
*RES
1 *651:X *480:B1 24.1536 
*END

*D_NET *167 0.000153393
*CONN
*I *679:A I *D sky130_fd_sc_hd__buf_2
*I *481:X O *D sky130_fd_sc_hd__a31o_1
*CAP
1 *679:A 3.01911e-05
2 *481:X 3.01911e-05
3 *481:A1 *679:A 6.11433e-05
4 *481:A2 *679:A 0
5 *147:125 *679:A 3.18676e-05
*RES
1 *481:X *679:A 19.5643 
*END

*D_NET *168 0.000225958
*CONN
*I *494:B1 I *D sky130_fd_sc_hd__a21o_1
*I *652:X O *D sky130_fd_sc_hd__dlygate4sd3_1
*CAP
1 *494:B1 4.8049e-05
2 *652:X 4.8049e-05
3 *494:B1 *202:8 5.68722e-05
4 *494:A1 *494:B1 7.29873e-05
*RES
1 *652:X *494:B1 19.9571 
*END

*D_NET *169 0.000533331
*CONN
*I *486:B1 I *D sky130_fd_sc_hd__a21o_1
*I *623:X O *D sky130_fd_sc_hd__dlygate4sd3_1
*CAP
1 *486:B1 0.000166921
2 *623:X 0.000166921
3 *478:A2 *486:B1 1.52978e-05
4 *486:A2 *486:B1 5.52238e-05
5 *488:A2 *486:B1 5.33882e-05
6 *619:A *486:B1 1.92789e-05
7 *95:105 *486:B1 5.62995e-05
8 *95:118 *486:B1 0
*RES
1 *623:X *486:B1 30.725 
*END

*D_NET *170 0.000759939
*CONN
*I *509:B1 I *D sky130_fd_sc_hd__a21o_1
*I *624:X O *D sky130_fd_sc_hd__dlygate4sd3_1
*CAP
1 *509:B1 0.000213959
2 *624:X 0.000213959
3 *508:B1 *509:B1 0
4 *581:RESET_B *509:B1 1.16179e-05
5 *624:A *509:B1 5.49544e-05
6 *85:33 *509:B1 1.41642e-05
7 *147:14 *509:B1 0
8 *154:35 *509:B1 7.8195e-05
9 *154:47 *509:B1 0.00017309
*RES
1 *624:X *509:B1 32.0286 
*END

*D_NET *171 0.000874284
*CONN
*I *502:B1 I *D sky130_fd_sc_hd__a21o_1
*I *625:X O *D sky130_fd_sc_hd__dlygate4sd3_1
*CAP
1 *502:B1 0.000226021
2 *625:X 0.000226021
3 *604:A *502:B1 0.000103267
4 *74:12 *502:B1 0.000185643
5 *74:18 *502:B1 7.05409e-05
6 *74:33 *502:B1 1.17091e-05
7 *96:87 *502:B1 5.10822e-05
*RES
1 *625:X *502:B1 32.3679 
*END

*D_NET *172 0.0009544
*CONN
*I *507:B1 I *D sky130_fd_sc_hd__a21o_1
*I *626:X O *D sky130_fd_sc_hd__dlygate4sd3_1
*CAP
1 *507:B1 0.00022003
2 *626:X 0.00022003
3 *508:A2 *507:B1 8.6229e-06
4 *511:A2 *507:B1 0.000107893
5 *80:55 *507:B1 0.00018077
6 *94:37 *507:B1 0.000147132
7 *147:14 *507:B1 6.99206e-05
*RES
1 *626:X *507:B1 32.975 
*END

*D_NET *173 0.000229513
*CONN
*I *500:B1 I *D sky130_fd_sc_hd__a21o_1
*I *627:X O *D sky130_fd_sc_hd__dlygate4sd3_1
*CAP
1 *500:B1 7.28932e-05
2 *627:X 7.28932e-05
3 *500:B1 *205:12 3.63281e-05
4 *500:B1 *206:14 4.15914e-05
5 *500:A1 *500:B1 5.80706e-06
6 *501:A1 *500:B1 0
*RES
1 *627:X *500:B1 29.2429 
*END

*D_NET *174 0.00111663
*CONN
*I *496:B1 I *D sky130_fd_sc_hd__a21o_1
*I *628:X O *D sky130_fd_sc_hd__dlygate4sd3_1
*CAP
1 *496:B1 0.000134283
2 *628:X 0.000134283
3 *496:A1 *496:B1 0.000103425
4 *540:A *496:B1 0
5 *628:A *496:B1 0.00014183
6 *661:A *496:B1 3.48705e-05
7 *93:33 *496:B1 4.0633e-05
8 *155:71 *496:B1 0.000527311
*RES
1 *628:X *496:B1 24.0821 
*END

*D_NET *175 0.000757542
*CONN
*I *511:B1 I *D sky130_fd_sc_hd__a21o_1
*I *629:X O *D sky130_fd_sc_hd__dlygate4sd3_1
*CAP
1 *511:B1 0.000205217
2 *629:X 0.000205217
3 *505:A2 *511:B1 7.29922e-05
4 *510:A2 *511:B1 9.90367e-05
5 *511:A1 *511:B1 5.10678e-05
6 *594:D *511:B1 1.90936e-05
7 *667:A *511:B1 7.79781e-06
8 *147:69 *511:B1 9.71197e-05
*RES
1 *629:X *511:B1 31.3143 
*END

*D_NET *176 0.00112815
*CONN
*I *515:B1 I *D sky130_fd_sc_hd__a21o_1
*I *630:X O *D sky130_fd_sc_hd__dlygate4sd3_1
*CAP
1 *515:B1 0.000165619
2 *630:X 0.000165619
3 *515:B1 *517:B1 5.64029e-05
4 *515:B1 *518:D 7.6644e-05
5 *515:B1 *585:D 5.41794e-05
6 *515:A2 *515:B1 0.000115554
7 *72:10 *515:B1 0.000352407
8 *154:78 *515:B1 0.000141729
*RES
1 *630:X *515:B1 33.0821 
*END

*D_NET *177 0.000545612
*CONN
*I *492:B1 I *D sky130_fd_sc_hd__a21o_1
*I *631:X O *D sky130_fd_sc_hd__dlygate4sd3_1
*CAP
1 *492:B1 0.000190963
2 *631:X 0.000190963
3 *492:A2 *492:B1 8.36054e-05
4 *109:10 *492:B1 8.00806e-05
*RES
1 *631:X *492:B1 31.6714 
*END

*D_NET *178 0.000610831
*CONN
*I *680:A I *D sky130_fd_sc_hd__buf_2
*I *483:X O *D sky130_fd_sc_hd__a31o_1
*CAP
1 *680:A 0.000188765
2 *483:X 0.000188765
3 seg0[4] *680:A 6.0038e-05
4 *483:A3 *680:A 2.89016e-05
5 *534:A *680:A 1.91418e-05
6 *570:CLK *680:A 2.61099e-05
7 *147:125 *680:A 9.91086e-05
8 *148:49 *680:A 0
*RES
1 *483:X *680:A 30.9036 
*END

*D_NET *179 0.000494026
*CONN
*I *513:B1 I *D sky130_fd_sc_hd__a21o_1
*I *632:X O *D sky130_fd_sc_hd__dlygate4sd3_1
*CAP
1 *513:B1 0.000120687
2 *632:X 0.000120687
3 *513:B1 *518:D 0.000150618
4 *513:B1 *210:6 3.69047e-06
5 *94:20 *513:B1 9.83442e-05
*RES
1 *632:X *513:B1 30.4929 
*END

*D_NET *180 0.00027643
*CONN
*I *484:B1 I *D sky130_fd_sc_hd__a21o_1
*I *634:X O *D sky130_fd_sc_hd__dlygate4sd3_1
*CAP
1 *484:B1 2.92035e-05
2 *634:X 2.92035e-05
3 *484:A1 *484:B1 0.00014183
4 *146:25 *484:B1 7.61932e-05
*RES
1 *634:X *484:B1 19.9571 
*END

*D_NET *181 0.000590703
*CONN
*I *478:B1 I *D sky130_fd_sc_hd__a21o_1
*I *635:X O *D sky130_fd_sc_hd__dlygate4sd3_1
*CAP
1 *478:B1 0.000180018
2 *635:X 0.000180018
3 seg0[0] *478:B1 7.8327e-05
4 *677:A *478:B1 0.00015234
*RES
1 *635:X *478:B1 30.9036 
*END

*D_NET *182 0.0008642
*CONN
*I *498:B1 I *D sky130_fd_sc_hd__a21o_1
*I *636:X O *D sky130_fd_sc_hd__dlygate4sd3_1
*CAP
1 *498:B1 0.000261414
2 *636:X 0.000261414
3 *498:B1 *503:A 5.52238e-05
4 *498:B1 *503:B 0.000113073
5 *498:B1 *503:C 2.20241e-05
6 *498:B1 *503:D 0.00014183
7 *498:A1 *498:B1 9.22103e-06
*RES
1 *636:X *498:B1 23.6714 
*END

*D_NET *183 0.000822352
*CONN
*I *517:B1 I *D sky130_fd_sc_hd__a21o_1
*I *637:X O *D sky130_fd_sc_hd__dlygate4sd3_1
*CAP
1 *517:B1 0.000311351
2 *637:X 0.000311351
3 *517:B1 *585:D 6.88458e-06
4 *515:B1 *517:B1 5.64029e-05
5 *585:CLK *517:B1 1.73945e-05
6 *630:A *517:B1 9.31595e-05
7 *85:117 *517:B1 2.58081e-05
*RES
1 *637:X *517:B1 32.1357 
*END

*D_NET *184 0.00046322
*CONN
*I *488:B1 I *D sky130_fd_sc_hd__a21o_1
*I *638:X O *D sky130_fd_sc_hd__dlygate4sd3_1
*CAP
1 *488:B1 0.00016454
2 *638:X 0.00016454
3 *488:A1 *488:B1 5.80706e-06
4 *572:RESET_B *488:B1 9.90431e-05
5 *638:A *488:B1 0
6 *654:A *488:B1 0
7 *138:14 *488:B1 2.92904e-05
*RES
1 *638:X *488:B1 30.1893 
*END

*D_NET *185 0.0024338
*CONN
*I *596:D I *D sky130_fd_sc_hd__dfrtp_4
*I *639:X O *D sky130_fd_sc_hd__dlygate4sd3_1
*CAP
1 *596:D 0.000455802
2 *639:X 0.000455802
3 *596:D *588:D 0.00028902
4 *561:A *596:D 0.000304898
5 *588:CLK *596:D 2.14658e-05
6 *597:RESET_B *596:D 0.000177227
7 *601:CLK *596:D 6.05161e-06
8 *601:D *596:D 0.000109012
9 *602:RESET_B *596:D 1.91414e-05
10 *84:36 *596:D 0.000482884
11 *88:97 *596:D 5.04705e-05
12 *155:46 *596:D 6.20209e-05
13 *155:100 *596:D 0
*RES
1 *639:X *596:D 41.1357 
*END

*D_NET *186 0.000554282
*CONN
*I *482:B1 I *D sky130_fd_sc_hd__a21o_1
*I *640:X O *D sky130_fd_sc_hd__dlygate4sd3_1
*CAP
1 *482:B1 0.000195617
2 *640:X 0.000195617
3 *481:A3 *482:B1 0.000163047
4 *563:A *482:B1 0
*RES
1 *640:X *482:B1 31.6714 
*END

*D_NET *187 0.000438058
*CONN
*I *599:D I *D sky130_fd_sc_hd__dfrtp_4
*I *641:X O *D sky130_fd_sc_hd__dlygate4sd3_1
*CAP
1 *599:D 8.46358e-05
2 *641:X 8.46358e-05
3 *72:34 *599:D 0.000128146
4 *80:20 *599:D 0.000129868
5 *94:12 *599:D 1.07719e-05
*RES
1 *641:X *599:D 29.7786 
*END

*D_NET *188 0.00131517
*CONN
*I *597:D I *D sky130_fd_sc_hd__dfrtp_4
*I *642:X O *D sky130_fd_sc_hd__dlygate4sd3_1
*CAP
1 *597:D 0.000540326
2 *642:X 0.000540326
3 *597:D *588:D 0
4 *552:A *597:D 5.62995e-05
5 *588:CLK *597:D 0
6 *673:A *597:D 0.000178222
7 *88:93 *597:D 0
*RES
1 *642:X *597:D 37.8143 
*END

*D_NET *189 0.00136773
*CONN
*I *681:A I *D sky130_fd_sc_hd__buf_2
*I *485:X O *D sky130_fd_sc_hd__a31o_1
*CAP
1 *681:A 0.000339069
2 *485:X 0.000339069
3 *681:A *489:D 0.000184616
4 seg0[4] *681:A 0
5 seg0[5] *681:A 6.05161e-06
6 *483:B1 *681:A 0.000181368
7 *487:B1 *681:A 6.65302e-05
8 *490:C *681:A 5.52238e-05
9 *95:94 *681:A 4.43355e-05
10 *96:119 *681:A 0
11 *147:125 *681:A 0
12 *148:49 *681:A 0.000151468
13 *148:62 *681:A 0
*RES
1 *485:X *681:A 36.2964 
*END

*D_NET *190 0.000879154
*CONN
*I *600:D I *D sky130_fd_sc_hd__dfrtp_4
*I *643:X O *D sky130_fd_sc_hd__dlygate4sd3_1
*CAP
1 *600:D 0.000376718
2 *643:X 0.000376718
3 *637:A *600:D 0
4 *96:32 *600:D 0.000125717
*RES
1 *643:X *600:D 32.6536 
*END

*D_NET *191 0.001704
*CONN
*I *595:D I *D sky130_fd_sc_hd__dfstp_2
*I *645:X O *D sky130_fd_sc_hd__dlygate4sd3_1
*CAP
1 *595:D 0.000407646
2 *645:X 0.000407646
3 *605:A *595:D 0.00024426
4 *72:34 *595:D 0.000314188
5 *80:12 *595:D 9.25014e-06
6 *80:14 *595:D 0.00012401
7 *80:16 *595:D 0.000196999
*RES
1 *645:X *595:D 35.9036 
*END

*D_NET *192 0.00232369
*CONN
*I *598:D I *D sky130_fd_sc_hd__dfrtp_4
*I *646:X O *D sky130_fd_sc_hd__dlygate4sd3_1
*CAP
1 *598:D 0.000747935
2 *646:X 0.000747935
3 *603:CLK *598:D 0.000249491
4 *646:A *598:D 5.71472e-05
5 *74:12 *598:D 9.47613e-05
6 *86:65 *598:D 2.19684e-05
7 *91:20 *598:D 1.63058e-05
8 *92:82 *598:D 0
9 *154:29 *598:D 0.000388146
*RES
1 *646:X *598:D 44.1714 
*END

*D_NET *193 0.000119903
*CONN
*I *682:A I *D sky130_fd_sc_hd__buf_2
*I *487:X O *D sky130_fd_sc_hd__a31o_1
*CAP
1 *682:A 4.20196e-05
2 *487:X 4.20196e-05
3 *487:A1 *682:A 0
4 *488:A1 *682:A 3.58638e-05
*RES
1 *487:X *682:A 19.5643 
*END

*D_NET *194 0.001345
*CONN
*I *683:A I *D sky130_fd_sc_hd__buf_2
*I *491:X O *D sky130_fd_sc_hd__a31o_1
*CAP
1 *683:A 0.000637692
2 *491:X 0.000637692
3 *74:67 *683:A 5.39629e-06
4 *87:47 *683:A 6.42242e-05
*RES
1 *491:X *683:A 35.8321 
*END

*D_NET *195 0.00176786
*CONN
*I *568:D I *D sky130_fd_sc_hd__dfrtp_1
*I *490:A I *D sky130_fd_sc_hd__and3_1
*I *478:X O *D sky130_fd_sc_hd__a21o_1
*CAP
1 *568:D 0
2 *490:A 7.78637e-05
3 *478:X 0.000516511
4 *195:6 0.000594375
5 *478:A2 *195:6 9.66804e-05
6 *568:CLK *490:A 2.89114e-05
7 *568:RESET_B *195:6 6.49514e-05
8 *73:33 *490:A 5.66157e-05
9 *96:54 *490:A 0.000183726
10 *96:54 *195:6 6.09804e-05
11 *103:10 *195:6 2.89114e-05
12 *148:75 *490:A 5.83304e-05
*RES
1 *478:X *195:6 18.4607 
2 *195:6 *490:A 20.8 
3 *195:6 *568:D 9.3 
*END

*D_NET *196 0.00112209
*CONN
*I *569:D I *D sky130_fd_sc_hd__dfrtp_1
*I *490:B I *D sky130_fd_sc_hd__and3_1
*I *480:X O *D sky130_fd_sc_hd__a21o_1
*CAP
1 *569:D 0
2 *490:B 0.000165657
3 *480:X 8.00141e-05
4 *196:10 0.000245671
5 *480:B1 *196:10 5.52302e-05
6 *568:CLK *490:B 5.90774e-05
7 *94:117 *490:B 0.000177941
8 *94:117 *196:10 0.000136864
9 *147:182 *196:10 2.89114e-05
10 *148:75 *490:B 9.56968e-05
11 *148:75 *196:10 7.09775e-05
12 *156:52 *490:B 6.05161e-06
*RES
1 *480:X *196:10 16.2821 
2 *196:10 *490:B 17.4071 
3 *196:10 *569:D 13.8 
*END

*D_NET *197 0.00307446
*CONN
*I *489:A I *D sky130_fd_sc_hd__and4_1
*I *570:D I *D sky130_fd_sc_hd__dfrtp_1
*I *482:X O *D sky130_fd_sc_hd__a21o_1
*CAP
1 *489:A 2.17614e-05
2 *570:D 0.000389801
3 *482:X 0.000360591
4 *197:10 0.000772154
5 *489:A *489:B 4.18895e-05
6 *489:A *571:D 5.52302e-05
7 *570:D *572:D 0.000100969
8 *197:10 *572:D 1.08359e-05
9 *197:10 *198:12 0.000153054
10 *482:A2 *197:10 8.68479e-05
11 *570:CLK *570:D 0.000262504
12 *571:RESET_B *197:10 5.33005e-05
13 *619:A *197:10 9.6162e-05
14 *634:A *197:10 0
15 *86:16 *197:10 5.33005e-05
16 *86:20 *197:10 0.000101545
17 *86:26 *570:D 0.000150625
18 *86:26 *197:10 9.54385e-05
19 *86:39 *570:D 3.75052e-05
20 *95:94 *489:A 9.71197e-05
21 *147:109 *570:D 3.22834e-05
22 *148:33 *570:D 0.000101545
*RES
1 *482:X *197:10 21.4071 
2 *197:10 *570:D 21.6929 
3 *197:10 *489:A 14.7464 
*END

*D_NET *198 0.0027332
*CONN
*I *489:B I *D sky130_fd_sc_hd__and4_1
*I *571:D I *D sky130_fd_sc_hd__dfrtp_1
*I *484:X O *D sky130_fd_sc_hd__a21o_1
*CAP
1 *489:B 6.16346e-05
2 *571:D 0.000221596
3 *484:X 0.00040436
4 *198:12 0.00068759
5 *489:B *572:D 5.03772e-05
6 *198:12 *572:D 5.83304e-05
7 *482:A2 *198:12 2.97829e-05
8 *483:B1 *198:12 7.79781e-06
9 *484:A1 *198:12 0.000227532
10 *489:A *489:B 4.18895e-05
11 *489:A *571:D 5.52302e-05
12 *634:A *198:12 2.05938e-05
13 *86:16 *198:12 5.33433e-05
14 *86:59 *571:D 0.000219424
15 *95:94 *489:B 7.79897e-05
16 *95:94 *571:D 0.000337638
17 *106:8 *489:B 1.21258e-05
18 *106:8 *571:D 3.69047e-06
19 *146:25 *198:12 9.22103e-06
20 *197:10 *198:12 0.000153054
*RES
1 *484:X *198:12 24.8893 
2 *198:12 *571:D 15.9964 
3 *198:12 *489:B 11.0857 
*END

*D_NET *199 0.00223363
*CONN
*I *489:C I *D sky130_fd_sc_hd__and4_1
*I *572:D I *D sky130_fd_sc_hd__dfrtp_1
*I *486:X O *D sky130_fd_sc_hd__a21o_1
*CAP
1 *489:C 0
2 *572:D 0.00019871
3 *486:X 0.000450931
4 *199:12 0.000649641
5 *199:12 *489:D 5.33334e-05
6 *483:B1 *572:D 0.000107343
7 *488:A2 *199:12 7.83659e-05
8 *489:B *572:D 5.03772e-05
9 *570:D *572:D 0.000100969
10 *86:39 *572:D 8.25512e-05
11 *95:94 *572:D 1.56e-05
12 *95:94 *199:12 5.03808e-05
13 *95:105 *199:12 0.000173921
14 *96:119 *572:D 5.52238e-05
15 *106:8 *572:D 9.71197e-05
16 *197:10 *572:D 1.08359e-05
17 *198:12 *572:D 5.83304e-05
*RES
1 *486:X *199:12 24.8 
2 *199:12 *572:D 24.0857 
3 *199:12 *489:C 9.3 
*END

*D_NET *200 0.00244889
*CONN
*I *573:D I *D sky130_fd_sc_hd__dfrtp_1
*I *489:D I *D sky130_fd_sc_hd__and4_1
*I *488:X O *D sky130_fd_sc_hd__a21o_1
*CAP
1 *573:D 0
2 *489:D 0.000174923
3 *488:X 0.000432956
4 *200:10 0.000607879
5 *483:B1 *489:D 0
6 *487:B1 *200:10 0.000307384
7 *488:A2 *200:10 7.78347e-05
8 *490:C *489:D 3.55387e-05
9 *573:RESET_B *200:10 2.00884e-05
10 *681:A *489:D 0.000184616
11 *95:94 *489:D 9.90367e-05
12 *108:6 *200:10 0.000186669
13 *138:14 *200:10 5.38072e-05
14 *148:62 *489:D 0.000193156
15 *148:75 *489:D 2.16719e-05
16 *199:12 *489:D 5.33334e-05
*RES
1 *488:X *200:10 19.425 
2 *200:10 *489:D 24.5321 
3 *200:10 *573:D 9.3 
*END

*D_NET *201 0.00524247
*CONN
*I *504:A I *D sky130_fd_sc_hd__and3_1
*I *574:D I *D sky130_fd_sc_hd__dfrtp_1
*I *492:X O *D sky130_fd_sc_hd__a21o_1
*CAP
1 *504:A 0.000810512
2 *574:D 0.000607355
3 *492:X 0
4 *201:4 0.00141787
5 *504:A *504:B 0.000661974
6 *504:A *575:D 0.000226021
7 *492:A1 *574:D 9.60939e-05
8 *504:C *504:A 4.66203e-05
9 *538:A *504:A 0.000575223
10 *604:A *504:A 0.00021674
11 *660:A *504:A 8.56812e-05
12 *92:61 *504:A 5.19806e-05
13 *92:65 *504:A 0.000190805
14 *110:12 *504:A 0.000129868
15 *114:12 *504:A 0.000125731
16 *155:113 *504:A 0
*RES
1 *492:X *201:4 9.3 
2 *201:4 *574:D 27.8714 
3 *201:4 *504:A 39.6929 
*END

*D_NET *202 0.00349921
*CONN
*I *575:D I *D sky130_fd_sc_hd__dfrtp_1
*I *504:B I *D sky130_fd_sc_hd__and3_1
*I *494:X O *D sky130_fd_sc_hd__a21o_1
*CAP
1 *575:D 0.000409684
2 *504:B 0.000343455
3 *494:X 6.14674e-05
4 *202:8 0.000814606
5 *494:A1 *202:8 0.000183438
6 *494:B1 *202:8 5.68722e-05
7 *504:A *504:B 0.000661974
8 *504:A *575:D 0.000226021
9 *504:C *504:B 7.6644e-05
10 *574:RESET_B *575:D 3.08664e-05
11 *575:RESET_B *575:D 2.29097e-05
12 *660:A *504:B 9.91086e-05
13 *660:A *575:D 0.000216771
14 *148:136 *504:B 0.000240159
15 *152:24 *504:B 5.52302e-05
*RES
1 *494:X *202:8 15.5679 
2 *202:8 *504:B 22.9607 
3 *202:8 *575:D 22.5321 
*END

*D_NET *203 0.00114571
*CONN
*I *576:D I *D sky130_fd_sc_hd__dfrtp_1
*I *503:A I *D sky130_fd_sc_hd__and4_1
*I *496:X O *D sky130_fd_sc_hd__a21o_1
*CAP
1 *576:D 0.000229626
2 *503:A 0.000192458
3 *496:X 0
4 *203:6 0.000422084
5 *503:A *503:B 5.71472e-05
6 seg1[5] *503:A 0
7 *498:A2 *503:A 5.80706e-06
8 *498:B1 *503:A 5.52238e-05
9 *541:A *503:A 0
10 *576:RESET_B *503:A 5.80706e-06
11 *576:RESET_B *576:D 5.84171e-05
12 *74:52 *503:A 0
13 *74:67 *503:A 0
14 *74:67 *576:D 0
15 *132:26 *503:A 0
16 *132:26 *576:D 0.000119135
*RES
1 *496:X *203:6 13.8 
2 *203:6 *503:A 17.4964 
3 *203:6 *576:D 18.4429 
*END

*D_NET *204 0.00144494
*CONN
*I *503:B I *D sky130_fd_sc_hd__and4_1
*I *577:D I *D sky130_fd_sc_hd__dfrtp_1
*I *498:X O *D sky130_fd_sc_hd__a21o_1
*CAP
1 *503:B 0.000185917
2 *577:D 0.000224803
3 *498:X 0
4 *204:4 0.00041072
5 *503:B *503:C 3.57366e-05
6 *577:D *503:C 0
7 *498:A1 *503:B 9.7659e-05
8 *498:A1 *577:D 0
9 *498:A2 *577:D 0
10 *498:B1 *503:B 0.000113073
11 *503:A *503:B 5.71472e-05
12 *577:CLK *577:D 0
13 *577:RESET_B *577:D 0.000319887
*RES
1 *498:X *204:4 9.3 
2 *204:4 *577:D 23.2107 
3 *204:4 *503:B 13.8714 
*END

*D_NET *205 0.00279468
*CONN
*I *503:C I *D sky130_fd_sc_hd__and4_1
*I *578:D I *D sky130_fd_sc_hd__dfrtp_1
*I *500:X O *D sky130_fd_sc_hd__a21o_1
*CAP
1 *503:C 0.000177281
2 *578:D 0.000269442
3 *500:X 0.000646808
4 *205:12 0.00109353
5 *503:C *503:D 6.05161e-06
6 *498:A1 *503:C 5.28752e-05
7 *498:A2 *503:C 0
8 *498:A2 *578:D 2.61853e-05
9 *498:A2 *205:12 5.39629e-06
10 *498:B1 *503:C 2.20241e-05
11 *499:B1 *205:12 3.63281e-05
12 *500:B1 *205:12 3.63281e-05
13 *503:B *503:C 3.57366e-05
14 *577:D *503:C 0
15 *578:RESET_B *205:12 0.00029186
16 *74:33 *503:C 4.7024e-05
17 *74:52 *503:C 4.78056e-05
*RES
1 *500:X *205:12 26.8536 
2 *205:12 *578:D 12.7286 
3 *205:12 *503:C 22.675 
*END

*D_NET *206 0.00253309
*CONN
*I *579:D I *D sky130_fd_sc_hd__dfrtp_1
*I *503:D I *D sky130_fd_sc_hd__and4_1
*I *502:X O *D sky130_fd_sc_hd__a21o_1
*CAP
1 *579:D 0
2 *503:D 0.000266024
3 *502:X 0.000310568
4 *206:14 0.000576591
5 *498:A1 *503:D 0.000372895
6 *498:B1 *503:D 0.00014183
7 *500:B1 *206:14 4.15914e-05
8 *503:C *503:D 6.05161e-06
9 *504:C *503:D 0.000114473
10 *504:C *206:14 8.84193e-05
11 *578:RESET_B *206:14 0.000100979
12 *579:CLK *503:D 0.000144074
13 *636:A *503:D 5.33005e-05
14 *74:18 *206:14 1.59373e-05
15 *74:33 *206:14 5.65955e-05
16 *91:72 *503:D 5.81057e-05
17 *91:72 *206:14 6.38152e-05
18 *132:26 *206:14 0.000121842
*RES
1 *502:X *206:14 25.0857 
2 *206:14 *503:D 17.3714 
3 *206:14 *579:D 9.3 
*END

*D_NET *207 0.00151529
*CONN
*I *519:A I *D sky130_fd_sc_hd__and3_1
*I *580:D I *D sky130_fd_sc_hd__dfrtp_1
*I *507:X O *D sky130_fd_sc_hd__a21o_1
*CAP
1 *519:A 0
2 *580:D 0.000122248
3 *507:X 0.00039777
4 *207:8 0.000520018
5 *580:D *519:B 3.28897e-05
6 *505:A2 *580:D 0
7 *511:A1 *207:8 9.34596e-05
8 *511:A2 *207:8 1.07719e-05
9 *519:C *580:D 4.46186e-06
10 *519:C *207:8 6.04072e-05
11 *580:CLK *580:D 6.05161e-06
12 *594:D *207:8 5.74499e-06
13 *667:A *580:D 5.71472e-05
14 *667:A *207:8 5.62817e-05
15 *85:37 *580:D 1.98839e-05
16 *85:48 *580:D 0.000128154
*RES
1 *507:X *207:8 14.3714 
2 *207:8 *580:D 21.0143 
3 *207:8 *519:A 9.3 
*END

*D_NET *208 0.00371
*CONN
*I *581:D I *D sky130_fd_sc_hd__dfrtp_1
*I *519:B I *D sky130_fd_sc_hd__and3_1
*I *509:X O *D sky130_fd_sc_hd__a21o_1
*CAP
1 *581:D 5.56419e-05
2 *519:B 0.000644854
3 *509:X 0.000163595
4 *208:16 0.000864091
5 *519:B *209:10 1.02504e-05
6 *508:A3 *208:16 5.33005e-05
7 *508:B1 *208:16 7.54868e-05
8 *519:C *519:B 0.000105682
9 *580:D *519:B 3.28897e-05
10 *580:RESET_B *519:B 0.000216448
11 *581:CLK *581:D 1.69115e-05
12 *626:A *208:16 0.000371417
13 *666:A *519:B 2.49484e-05
14 *666:A *581:D 4.66203e-05
15 *667:A *519:B 4.00025e-05
16 *85:35 *519:B 8.43535e-06
17 *85:35 *208:16 0.00027825
18 *85:37 *519:B 0.000148167
19 *94:37 *519:B 0.000101545
20 *94:37 *581:D 0.000150618
21 *147:14 *208:16 1.41029e-05
22 *154:47 *519:B 5.33005e-05
23 *154:47 *208:16 0.00017754
24 *154:53 *519:B 5.59013e-05
*RES
1 *509:X *208:16 28.1929 
2 *208:16 *519:B 33.3893 
3 *208:16 *581:D 15.7464 
*END

*D_NET *209 0.00245736
*CONN
*I *582:D I *D sky130_fd_sc_hd__dfrtp_1
*I *518:A I *D sky130_fd_sc_hd__and4_1
*I *511:X O *D sky130_fd_sc_hd__a21o_1
*CAP
1 *582:D 9.01713e-05
2 *518:A 0.000539825
3 *511:X 0.000232447
4 *209:10 0.000862444
5 *518:A *583:D 5.49553e-05
6 *505:A1 *209:10 0
7 *511:A1 *209:10 2.82057e-05
8 *514:A2 *518:A 0.00013589
9 *519:B *209:10 1.02504e-05
10 *519:C *209:10 0.000128753
11 *582:RESET_B *518:A 0
12 *594:D *209:10 5.33005e-05
13 *667:A *209:10 9.04846e-05
14 *668:A *518:A 8.00315e-05
15 *668:A *209:10 0
16 *85:48 *518:A 0
17 *85:48 *209:10 0
18 *94:20 *518:A 1.13883e-05
19 *147:37 *518:A 0.000139208
*RES
1 *511:X *209:10 18.5143 
2 *209:10 *518:A 24.0857 
3 *209:10 *582:D 15.1571 
*END

*D_NET *210 0.00265077
*CONN
*I *518:B I *D sky130_fd_sc_hd__and4_1
*I *583:D I *D sky130_fd_sc_hd__dfrtp_1
*I *513:X O *D sky130_fd_sc_hd__a21o_1
*CAP
1 *518:B 6.26372e-05
2 *583:D 0.000608934
3 *513:X 0.000209897
4 *210:6 0.000881468
5 *210:6 *518:D 3.0189e-05
6 *512:B1 *518:B 3.99614e-06
7 *513:B1 *210:6 3.69047e-06
8 *514:A2 *518:B 0
9 *518:A *583:D 5.49553e-05
10 *582:RESET_B *583:D 0.000402033
11 *632:A *583:D 0.000139208
12 *94:20 *518:B 3.68699e-05
13 *94:20 *583:D 2.64262e-06
14 *94:20 *210:6 2.31952e-05
15 *118:6 *583:D 0.000140933
16 *150:53 *583:D 5.01213e-05
*RES
1 *513:X *210:6 11.8893 
2 *210:6 *583:D 30.3 
3 *210:6 *518:B 10.8714 
*END

*D_NET *211 0.00281181
*CONN
*I *518:C I *D sky130_fd_sc_hd__and4_1
*I *584:D I *D sky130_fd_sc_hd__dfrtp_1
*I *515:X O *D sky130_fd_sc_hd__a21o_1
*CAP
1 *518:C 0.000344322
2 *584:D 0.00029838
3 *515:X 0.000196566
4 *211:10 0.000839268
5 *518:C *518:D 0.000413047
6 *211:10 *518:D 0.000114759
7 *211:10 *585:D 9.25014e-06
8 *514:B1 *584:D 0.000160838
9 *519:C *518:C 8.6229e-06
10 *547:A *584:D 5.23142e-05
11 *72:10 *211:10 0.000187042
12 *85:111 *518:C 0
13 *94:20 *518:C 9.83388e-05
14 *147:37 *518:C 0
15 *150:53 *518:C 0
16 *154:66 *584:D 8.90583e-05
*RES
1 *515:X *211:10 17.2107 
2 *211:10 *584:D 20.0857 
3 *211:10 *518:C 20.6393 
*END

*D_NET *212 0.00244027
*CONN
*I *518:D I *D sky130_fd_sc_hd__and4_1
*I *585:D I *D sky130_fd_sc_hd__dfrtp_1
*I *517:X O *D sky130_fd_sc_hd__a21o_1
*CAP
1 *518:D 0.000294635
2 *585:D 0.000271322
3 *517:X 4.36033e-05
4 *212:8 0.00060956
5 *513:B1 *518:D 0.000150618
6 *515:B1 *518:D 7.6644e-05
7 *515:B1 *585:D 5.41794e-05
8 *516:A3 *585:D 0
9 *517:B1 *585:D 6.88458e-06
10 *518:C *518:D 0.000413047
11 *548:A *585:D 4.21994e-05
12 *585:CLK *585:D 4.45363e-05
13 *585:RESET_B *585:D 0.000129732
14 *72:10 *212:8 5.33005e-05
15 *85:111 *518:D 0
16 *85:117 *518:D 0
17 *94:20 *518:D 9.58126e-05
18 *154:78 *585:D 0
19 *210:6 *518:D 3.0189e-05
20 *211:10 *518:D 0.000114759
21 *211:10 *585:D 9.25014e-06
*RES
1 *517:X *212:8 14.3357 
2 *212:8 *585:D 19.0321 
3 *212:8 *518:D 21.55 
*END

*D_NET *213 0.00045927
*CONN
*I *586:D I *D sky130_fd_sc_hd__dfrtp_1
*I *522:X O *D sky130_fd_sc_hd__a21o_1
*CAP
1 *586:D 0.000133372
2 *522:X 0.000133372
3 *586:D *587:D 3.25078e-05
4 *520:A3 *586:D 5.83304e-05
5 *525:A1 *586:D 1.15281e-05
6 *88:80 *586:D 2.59355e-05
7 *157:90 *586:D 6.42242e-05
*RES
1 *522:X *586:D 30.1893 
*END

*D_NET *214 0.00252011
*CONN
*I *587:D I *D sky130_fd_sc_hd__dfrtp_1
*I *524:X O *D sky130_fd_sc_hd__a21o_1
*CAP
1 *587:D 0.000662454
2 *524:X 0.000662454
3 *520:A3 *587:D 0.00020112
4 *522:B1 *587:D 0.00018077
5 *524:A1 *587:D 0.000229456
6 *586:D *587:D 3.25078e-05
7 *88:78 *587:D 2.8266e-06
8 *92:20 *587:D 0.000127034
9 *121:16 *587:D 9.90367e-05
10 *151:79 *587:D 0.000322446
11 *157:90 *587:D 0
*RES
1 *524:X *587:D 39.6 
*END

*D_NET *215 0.00179606
*CONN
*I *588:D I *D sky130_fd_sc_hd__dfrtp_1
*I *526:X O *D sky130_fd_sc_hd__a21o_1
*CAP
1 *588:D 0.000543708
2 *526:X 0.000543708
3 *561:A *588:D 1.00375e-05
4 *588:CLK *588:D 4.57538e-05
5 *596:D *588:D 0.00028902
6 *597:D *588:D 0
7 *608:A *588:D 0.000363837
8 *155:113 *588:D 0
*RES
1 *526:X *588:D 37.2071 
*END

*D_NET *216 0.000535658
*CONN
*I *589:D I *D sky130_fd_sc_hd__dfrtp_1
*I *528:X O *D sky130_fd_sc_hd__a21o_1
*CAP
1 *589:D 0.000160544
2 *528:X 0.000160544
3 *528:B1 *589:D 0
4 *82:12 *589:D 0.000144773
5 *82:66 *589:D 6.97972e-05
*RES
1 *528:X *589:D 30.6 
*END

*D_NET *217 0.00144644
*CONN
*I *590:D I *D sky130_fd_sc_hd__dfrtp_1
*I *530:X O *D sky130_fd_sc_hd__a21o_1
*CAP
1 *590:D 0.000391814
2 *530:X 0.000391814
3 *529:A3 *590:D 0.00050432
4 *530:A2 *590:D 5.52302e-05
5 *96:54 *590:D 0.00010326
*RES
1 *530:X *590:D 33.9929 
*END

*D_NET *218 0.000587667
*CONN
*I *591:D I *D sky130_fd_sc_hd__dfrtp_1
*I *532:X O *D sky130_fd_sc_hd__a21o_1
*CAP
1 *591:D 0.000131855
2 *532:X 0.000131855
3 *527:A3 *591:D 0
4 *531:B1 *591:D 7.15962e-05
5 *532:A1 *591:D 0.000125731
6 *591:CLK *591:D 0
7 *82:25 *591:D 0.000126629
*RES
1 *532:X *591:D 31.4214 
*END
